data_sucrose
_audit_creation_method            
 'Olex2: 2024.02.16 svn.r378c4104 MSC:192930153 on WIN64, Python: 3.8.10, wxWidgets: 3.0.4 for OlexSys'
_chemical_name_common              '?'
_chemical_name_systematic          '?'
_chemical_formula_moiety           'C12 H22 O11'
_chemical_formula_sum              'C12 H22 O11'
_chemical_formula_weight           342.30
_chemical_melting_point            ?
_space_group_crystal_system        'monoclinic'
_space_group_IT_number             4
_space_group_name_H-M_alt          'P 1 21 1'
_space_group_name_Hall             'P 2yb'
loop_
  _space_group_symop_id
  _space_group_symop_operation_xyz
 1 +X,+Y,+Z
 2 -X,1/2+Y,-Z

_cell_length_a                     7.7727(9)
_cell_length_b                     8.7216(11)
_cell_length_c                     10.8637(11)
_cell_angle_alpha                  90
_cell_angle_beta                   102.983(11)
_cell_angle_gamma                  90
_cell_volume                       717.63(15)
_cell_formula_units_Z              2
_diffrn_reflns_av_R_equivalents    0.0339
_diffrn_reflns_av_unetI/netI       0.0306
_diffrn_reflns_limit_h_max         10
_diffrn_reflns_limit_h_min         -10
_diffrn_reflns_limit_k_max         9
_diffrn_reflns_limit_k_min         -11
_diffrn_reflns_limit_l_max         14
_diffrn_reflns_limit_l_min         -14
_diffrn_reflns_number              13618
_diffrn_reflns_theta_max           29.21
_diffrn_reflns_theta_min           2.34
_diffrn_ambient_temperature        ?
_diffrn_radiation_wavelength       0.71073
_reflns_number_total               3318
loop_
  _atom_site_label
  _atom_site_type_symbol
  _atom_site_fract_x
  _atom_site_fract_y
  _atom_site_fract_z
  _atom_site_U_iso_or_equiv
  _atom_site_adp_type
  _atom_site_occupancy
  _atom_site_refinement_flags_posn
  _atom_site_site_symmetry_order
  _atom_site_disorder_group
 O1 O -0.1317 0.93514 0.87745 0.022388 Uani 1 . 1 .
 O2 O -0.21357 0.78859 1.08164 0.035714 Uani 1 . 1 .
 H2 H -0.22319 0.90272 1.10744 0.174994 Uani 1 . 1 .
 O3 O -0.14414 0.52003 0.84873 0.043877 Uani 1 . 1 .
 H3 H -0.08291 0.46222 0.83774 0.119701 Uani 1 . 1 .
 O4 O 0.20263 0.58609 0.80887 0.037808 Uani 1 . 1 .
 H4 H 0.23627 0.57015 0.74324 0.076177 Uani 1 . 1 .
 O5 O 0.24743 0.89808 0.72895 0.027855 Uani 1 . 1 .
 H5 H 0.33381 0.95348 0.76532 0.112984 Uani 1 . 1 .
 O6 O -0.18388 1.23951 0.71223 0.026856 Uani 1 . 1 .
 O7 O -0.46026 1.09578 0.82662 0.034749 Uani 1 . 1 .
 H7 H -0.3569 1.0614 0.84334 0.062513 Uani 1 . 1 .
 O8 O -0.58895 1.23643 0.47812 0.030305 Uani 1 . 1 .
 H8 H -0.67719 1.19501 0.48589 0.056202 Uani 1 . 1 .
 O9 O -0.29536 1.0164 0.42569 0.025804 Uani 1 . 1 .
 H9 H -0.32079 0.94109 0.45849 0.04438 Uani 1 . 1 .
 O10 O 0.12059 1.09827 0.52967 0.02986 Uani 1 . 1 .
 H10 H 0.15459 1.03311 0.57218 0.082911 Uani 1 . 1 .
 O11 O -0.10869 0.98695 0.67111 0.018616 Uani 1 . 1 .
 C1 C -0.20414 0.78188 0.85928 0.023314 Uani 1 . 1 .
 H1 H -0.28264 0.76782 0.77638 0.01664 Uani 1 . 1 .
 C2 C -0.31631 0.76319 0.95715 0.029687 Uani 1 . 1 .
 H2A H -0.42299 0.83792 0.93544 0.03666 Uani 1 . 1 .
 H2B H -0.35844 0.65508 0.9506 0.039451 Uani 1 . 1 .
 C3 C -0.05779 0.66323 0.87393 0.025 Uani 1 . 1 .
 H3B H 0.01197 0.6643 0.95476 0.029378 Uani 1 . 1 .
 C4 C 0.06482 0.69822 0.78562 0.023573 Uani 1 . 1 .
 H4B H 0.00186 0.68635 0.69989 0.018275 Uani 1 . 1 .
 C5 C 0.13529 0.85882 0.81264 0.021538 Uani 1 . 1 .
 H5B H 0.20423 0.86284 0.89813 0.023399 Uani 1 . 1 .
 C6 C -0.01398 0.97622 0.8001 0.018779 Uani 1 . 1 .
 H6 H 0.02927 1.07124 0.82975 0.0148 Uani 1 . 1 .
 C7 C -0.13045 1.14149 0.62415 0.017692 Uani 1 . 1 .
 C8 C 0.04341 1.2033 0.60285 0.024035 Uani 1 . 1 .
 H8A H 0.01976 1.30479 0.55893 0.027048 Uani 1 . 1 .
 H8B H 0.11989 1.22252 0.68438 0.026092 Uani 1 . 1 .
 C9 C -0.28574 1.14303 0.50722 0.019064 Uani 1 . 1 .
 H9B H -0.26939 1.23037 0.46019 0.017203 Uani 1 . 1 .
 C10 C -0.44462 1.16698 0.56515 0.020779 Uani 1 . 1 .
 H10B H -0.47921 1.07349 0.59355 0.015893 Uani 1 . 1 .
 C11 C -0.37184 1.27238 0.67593 0.021485 Uani 1 . 1 .
 H11 H -0.38653 1.37697 0.65049 0.03261 Uani 1 . 1 .
 C12 C -0.45296 1.25203 0.78951 0.029435 Uani 1 . 1 .
 H12A H -0.38516 1.31966 0.86302 0.03621 Uani 1 . 1 .
 H12B H -0.57777 1.28827 0.76742 0.025694 Uani 1 . 1 .

loop_
  _atom_site_aniso_label
  _atom_site_aniso_U_11
  _atom_site_aniso_U_22
  _atom_site_aniso_U_33
  _atom_site_aniso_U_23
  _atom_site_aniso_U_13
  _atom_site_aniso_U_12
 O1 0.02647 0.02052 0.02234 -0.00003 0.01006 -0.00022
 O2 0.04485 0.03912 0.02642 0.00619 0.01487 0.00805
 H2 0.08874 0.25643 0.22058 0.17379 0.1209 0.11684
 O3 0.05095 0.021 0.06587 -0.00716 0.0262 -0.00873
 H3 0.12061 0.05797 0.2218 -0.10995 0.12569 -0.0553
 O4 0.05262 0.02922 0.03796 0.0098 0.02365 0.01857
 H4 0.03945 0.04867 0.16753 0.05876 0.08056 0.03044
 O5 0.0222 0.03178 0.03151 0.00249 0.0101 0.00182
 H5 0.06917 0.23808 0.03605 0.02352 0.02101 -0.02941
 O6 0.02196 0.02744 0.03041 -0.0077 0.00428 0.00213
 O7 0.02876 0.04217 0.03607 0.00696 0.0131 0.00143
 H7 0.12129 -0.00357 0.08486 0.01677 0.05494 -0.01218
 O8 0.0176 0.03874 0.03284 0.00767 0.002 0.00243
 H8 0.09397 0.03962 0.02926 0.01754 0.00168 0.06461
 O9 0.02914 0.02495 0.02327 -0.00527 0.00578 -0.00414
 H9 0.01928 0.06599 0.04923 -0.05281 0.01057 -0.00339
 O10 0.02435 0.03678 0.03182 0.00391 0.01343 0.00159
 H10 0.05088 0.1414 0.07005 -0.0833 0.04232 -0.00474
 O11 0.02163 0.01543 0.01806 0.00123 0.00292 -0.00129
 C1 0.02565 0.02254 0.02174 0.00065 0.0053 -0.00373
 H1 0.02652 -0.00187 0.02673 0.0081 0.00907 0.00078
 C2 0.02745 0.0326 0.03096 0.00587 0.01068 -0.00047
 H2A 0.03118 0.06714 0.01116 0.00111 0.0037 0.00814
 H2B 0.05003 0.02007 0.04876 -0.02292 0.01217 0.0281
 C3 0.03169 0.01901 0.025 -0.0004 0.00785 -0.00149
 H3B 0.0259 0.01993 0.05578 0.01976 0.03765 0.02843
 C4 0.03054 0.02011 0.02101 0.00147 0.00778 0.00475
 H4B 0.02636 -0.01115 0.0374 0.00552 0.00248 -0.00241
 C5 0.02111 0.02415 0.01901 0.00184 0.00378 0.00137
 H5B 0.02608 0.02213 0.02259 0.00219 0.00674 -0.01071
 C6 0.02013 0.01892 0.01739 -0.00082 0.00443 -0.00121
 H6 0.01506 0.01832 0.0092 0.0131 -0.00112 -0.00145
 C7 0.01771 0.01551 0.02043 0.00057 0.0055 0.00131
 C8 0.01693 0.02572 0.02976 0.00159 0.00589 -0.00404
 H8A 0.00796 0.0273 0.05183 0.01401 0.01928 0.00596
 H8B 0.01028 0.02965 0.05026 0.02038 0.03198 0.0012
 C9 0.02015 0.01724 0.02004 0.00126 0.00502 -0.00187
 H9B 0.00071 0.01116 0.03248 -0.0354 -0.01161 0.00407
 C10 0.01765 0.02149 0.02309 0.00571 0.00435 0.00211
 H10B 0.03247 -0.00177 0.01346 0.00459 -0.00228 0.02162
 C11 0.01806 0.01878 0.02789 -0.00052 0.00574 0.00266
 H11 0.00585 0.05329 0.04049 0.0137 0.00901 0.01541
 C12 0.02706 0.03287 0.03159 -0.00291 0.01338 0.00281
 H12A 0.04355 0.04458 0.01317 -0.02238 -0.00912 -0.01331
 H12B 0.03101 0.02098 0.01818 -0.00132 -0.00908 0.00671

