data_thpp
_audit_creation_method            
 'Olex2: Dec 15 2021 20:46:35 MSC:193030706 on WIN64, Python: 3.8.6, wxWidgets: 3.1.5'
_chemical_name_common              '?'
_chemical_name_systematic          '?'
_chemical_formula_moiety           'C10 H10 F2 N4'
_chemical_formula_sum              'C10 H10 F2 N4'
_chemical_formula_weight           224.21
_chemical_melting_point            ?
_space_group_crystal_system        'monoclinic'
_space_group_IT_number             14
_space_group_name_H-M_alt          'P 1 21/n 1'
_space_group_name_Hall             '-P 2yn'
loop_
  _space_group_symop_id
  _space_group_symop_operation_xyz
 1 +X,+Y,+Z
 2 1/2-X,1/2+Y,1/2-Z
 3 -X,-Y,-Z
 4 1/2+X,1/2-Y,1/2+Z

_cell_length_a                     6.9196(1)
_cell_length_b                     14.5749(2)
_cell_length_c                     9.7248(1)
_cell_angle_alpha                  90
_cell_angle_beta                   90.637(1)
_cell_angle_gamma                  90
_cell_volume                       980.71(2)
_cell_formula_units_Z              4
_exptl_crystal_size_max            0.1
_exptl_crystal_size_mid            0.18
_exptl_crystal_size_min            0.36
_diffrn_reflns_av_R_equivalents    0.0536
_diffrn_reflns_av_unetI/netI       0.0285
_diffrn_reflns_limit_h_max         9
_diffrn_reflns_limit_h_min         -9
_diffrn_reflns_limit_k_max         20
_diffrn_reflns_limit_k_min         -20
_diffrn_reflns_limit_l_max         13
_diffrn_reflns_limit_l_min         -13
_diffrn_reflns_number              13911
_diffrn_reflns_theta_max           30.51
_diffrn_reflns_theta_min           1.40
_diffrn_ambient_temperature        ?
_diffrn_radiation_wavelength       0.71073
_reflns_number_total               2975
_refine_diff_density_max           0.17
loop_
  _atom_site_label
  _atom_site_type_symbol
  _atom_site_fract_x
  _atom_site_fract_y
  _atom_site_fract_z
  _atom_site_U_iso_or_equiv
  _atom_site_adp_type
  _atom_site_occupancy
  _atom_site_refinement_flags_posn
  _atom_site_site_symmetry_order
  _atom_site_disorder_group
 F1 F -0.16757(5) -0.42643(2) 0.23739(4) 0.02731(9) Uani 1 . 1 .
 F2 F -0.13135(5) -0.31507(2) 0.01249(4) 0.02920(9) Uani 1 . 1 .
 N8 N -0.36184(6) -0.66937(3) -0.07632(5) 0.02019(10) Uani 1 . 1 .
 N3 N -0.22188(6) -0.43047(3) -0.12949(5) 0.01994(10) Uani 1 . 1 .
 C9 C -0.30114(7) -0.58264(3) -0.04231(5) 0.01653(11) Uani 1 . 1 .
 C4 C -0.27483(7) -0.51682(4) -0.15273(6) 0.01766(11) Uani 1 . 1 .
 N5 N -0.30295(7) -0.54243(3) -0.28540(5) 0.02382(11) Uani 1 . 1 .
 C2 C -0.18825(7) -0.40247(4) -0.00246(6) 0.01993(11) Uani 1 . 1 .
 C10 C -0.26225(7) -0.54986(4) 0.09072(6) 0.01785(11) Uani 1 . 1 .
 C1 C -0.20610(7) -0.45717(4) 0.10981(6) 0.01935(11) Uani 1 . 1 .
 C11 C -0.26090(8) -0.60301(4) 0.21390(6) 0.02418(12) Uani 1 . 1 .
 C13 C -0.26834(10) -0.47611(5) -0.39397(7) 0.02804(14) Uani 1 . 1 .
 H13A H -0.1222(6) -0.4512(3) -0.3858(3) 0.054(2) Uani 1 R 1 .
 H13B H -0.2898(7) -0.50843(16) -0.4925(4) 0.061(2) Uani 1 R 1 .
 H13C H -0.3674(6) -0.4196(3) -0.3840(3) 0.057(2) Uani 1 R 1 .
 C6 C -0.36888(19) -0.63417(6) -0.32062(10) 0.0244(2) Uani 0.861 . 1 1
 H6A H -0.52751(19) -0.63466(6) -0.32938(10) 0.0292(3) Uiso 0.861 R 1 1
 H6B H -0.30969(19) -0.65427(6) -0.42072(10) 0.0292(3) Uiso 0.861 R 1 1
 N12 N -0.25118(8) -0.63889(4) 0.31959(6) 0.03621(13) Uani 1 . 1 .
 C7A C -0.3047(2) -0.70223(5) -0.21183(8) 0.0233(2) Uani 0.861 . 1 1
 H7AA H -0.1468(2) -0.71049(5) -0.21472(8) 0.0280(3) Uiso 0.861 R 1 1
 H7AB H -0.3714(2) -0.76943(5) -0.23230(8) 0.0280(3) Uiso 0.861 R 1 1
 C14 C -0.3959(1) -0.73916(4) 0.02661(7) 0.02670(13) Uani 1 . 1 .
 H14A H -0.4815(6) -0.71096(14) 0.1075(4) 0.0398(19) Uani 1 R 1 .
 H14B H -0.4711(6) -0.7958(2) -0.0196(2) 0.048(2) Uani 1 R 1 .
 H14C H -0.2603(5) -0.7624(2) 0.0681(4) 0.052(2) Uani 1 R 1 .
 C6A C -0.3032(15) -0.6342(5) -0.3194(8) 0.0305(18) Uani 0.139 . 1 2
 H6AA H -0.3758(15) -0.6425(5) -0.4198(8) 0.037(2) Uiso 0.139 R 1 2
 H6AB H -0.1527(15) -0.6570(5) -0.3307(8) 0.037(2) Uiso 0.139 R 1 2
 C7B C -0.4000(14) -0.6950(3) -0.2175(5) 0.0269(14) Uani 0.139 . 1 2
 H7BA H -0.3510(14) -0.7660(3) -0.2334(5) 0.0323(17) Uiso 0.139 R 1 2
 H7BB H -0.5570(14) -0.6931(3) -0.2366(5) 0.0323(17) Uiso 0.139 R 1 2

loop_
  _atom_site_aniso_label
  _atom_site_aniso_U_11
  _atom_site_aniso_U_22
  _atom_site_aniso_U_33
  _atom_site_aniso_U_23
  _atom_site_aniso_U_13
  _atom_site_aniso_U_12
 F1 0.03359(18) 0.02800(19) 0.02028(18) -0.00670(14) -0.00239(14) 0.00027(13)
 F2 0.03847(19) 0.01783(17) 0.0312(2) -0.00250(14) -0.00482(15) -0.00211(13)
 N8 0.0248(2) 0.0173(2) 0.0185(2) -0.00116(18) 0.00135(18) -0.00094(17)
 N3 0.0232(2) 0.0173(2) 0.0193(3) 0.00107(18) -0.00128(18) -0.00008(16)
 C9 0.0172(2) 0.0166(3) 0.0158(3) -0.0004(2) 0.00114(19) 0.00160(17)
 C4 0.0196(2) 0.0176(3) 0.0158(3) 0.0003(2) 0.00030(19) 0.00087(18)
 N5 0.0335(3) 0.0221(2) 0.0159(2) 0.00020(18) -0.00081(19) -0.00310(19)
 C2 0.0219(3) 0.0169(3) 0.0210(3) -0.0016(2) -0.0018(2) 0.00107(19)
 C10 0.0191(2) 0.0189(3) 0.0156(3) -0.0003(2) 0.00109(19) 0.00210(18)
 C1 0.0210(2) 0.0192(3) 0.0178(3) -0.0026(2) -0.0006(2) 0.00192(19)
 C11 0.0315(3) 0.0249(3) 0.0162(3) 0.0008(2) 0.0007(2) -0.0002(2)
 C13 0.0385(4) 0.0280(3) 0.0176(3) 0.0031(3) -0.0006(3) -0.0035(3)
 H13A 0.049(5) 0.064(6) 0.048(6) 0.010(5) 0.004(4) -0.022(4)
 H13B 0.106(7) 0.049(6) 0.028(6) 0.004(4) -0.004(5) -0.025(5)
 H13C 0.083(6) 0.036(5) 0.052(6) 0.016(4) 0.013(5) 0.030(4)
 C6 0.0317(6) 0.0236(4) 0.0177(4) -0.0038(3) 0.0003(4) -0.0032(4)
 N12 0.0555(3) 0.0345(3) 0.0186(3) 0.0057(2) -0.0021(2) -0.0037(2)
 C7A 0.0304(5) 0.0194(3) 0.0201(4) -0.0042(3) 0.0024(3) -0.0005(3)
 C14 0.0358(3) 0.0202(3) 0.0241(3) 0.0025(3) 0.0015(3) -0.0036(2)
 H14A 0.059(5) 0.031(4) 0.029(5) 0.006(4) 0.008(4) -0.003(4)
 H14B 0.073(5) 0.030(4) 0.041(6) -0.007(4) 0.000(4) -0.019(4)
 H14C 0.063(5) 0.052(5) 0.042(6) 0.015(4) 0.000(4) 0.008(4)
 C6A 0.051(5) 0.0218(13) 0.0183(17) -0.0020(6) 0.0052(12) -0.0052(8)
 C7B 0.039(4) 0.0223(17) 0.0192(13) -0.0006(6) -0.0001(7) -0.0032(11)

