data_sucrose
_audit_creation_method            
 'Olex2: Oct 14 2021 22:10:26 MSC:192930133 on WIN64, Python: 3.8.10, wxWidgets: 3.1.5'
_chemical_name_common              '?'
_chemical_name_systematic          '?'
_chemical_formula_moiety           'C12 H22 O11'
_chemical_formula_sum              'C12 H22 O11'
_chemical_formula_weight           342.30
_chemical_melting_point            ?
_space_group_crystal_system        'monoclinic'
_space_group_IT_number             4
_space_group_name_H-M_alt          'P 1 21 1'
_space_group_name_Hall             'P 2yb'
loop_
  _space_group_symop_id
  _space_group_symop_operation_xyz
 1 +X,+Y,+Z
 2 -X,1/2+Y,-Z

_cell_length_a                     7.7727(9)
_cell_length_b                     8.7216(11)
_cell_length_c                     10.8637(11)
_cell_angle_alpha                  90
_cell_angle_beta                   102.983(11)
_cell_angle_gamma                  90
_cell_volume                       717.63(15)
_cell_formula_units_Z              2
_diffrn_reflns_av_R_equivalents    0.0339
_diffrn_reflns_av_unetI/netI       0.0306
_diffrn_reflns_limit_h_max         10
_diffrn_reflns_limit_h_min         -10
_diffrn_reflns_limit_k_max         9
_diffrn_reflns_limit_k_min         -11
_diffrn_reflns_limit_l_max         14
_diffrn_reflns_limit_l_min         -14
_diffrn_reflns_number              13618
_diffrn_reflns_theta_max           29.21
_diffrn_reflns_theta_min           2.34
_diffrn_ambient_temperature        ?
_diffrn_radiation_wavelength       0.71073
_reflns_number_total               3318
_refine_diff_density_max           0.12
loop_
  _atom_site_label
  _atom_site_type_symbol
  _atom_site_fract_x
  _atom_site_fract_y
  _atom_site_fract_z
  _atom_site_U_iso_or_equiv
  _atom_site_adp_type
  _atom_site_occupancy
  _atom_site_refinement_flags_posn
  _atom_site_site_symmetry_order
  _atom_site_disorder_group
 O1 O -0.13146(11) 0.93491(10) 0.87712(7) 0.0211(2) Uani 1 . 1 .
 O2 O -0.21420(14) 0.78925(14) 1.08137(9) 0.0343(3) Uani 1 . 1 .
 H2 H -0.219(4) 0.908(4) 1.102(3) 0.107(12) Uani 1 . 1 .
 O3 O -0.14314(16) 0.51943(13) 0.84869(11) 0.0427(3) Uani 1 . 1 .
 H3 H -0.068(4) 0.436(4) 0.829(3) 0.126(14) Uani 1 . 1 .
 O4 O 0.20280(15) 0.58605(13) 0.80824(10) 0.0362(3) Uani 1 . 1 .
 H4 H 0.244(3) 0.568(3) 0.730(3) 0.076(9) Uani 1 . 1 .
 O5 O 0.24749(13) 0.89825(13) 0.72952(9) 0.0262(2) Uani 1 . 1 .
 H5 H 0.344(3) 0.966(3) 0.772(2) 0.057(8) Uani 1 . 1 .
 O6 O -0.18429(9) 1.23904(11) 0.71194(7) 0.0212(2) Uani 1 . 1 .
 O7 O -0.45919(14) 1.09602(13) 0.82653(9) 0.0329(3) Uani 1 . 1 .
 H7 H -0.329(3) 1.056(4) 0.853(2) 0.081(10) Uani 1 . 1 .
 O8 O -0.58923(12) 1.23579(14) 0.47861(9) 0.0283(2) Uani 1 . 1 .
 H8 H -0.697(3) 1.182(3) 0.4838(17) 0.052(7) Uani 1 . 1 .
 O9 O -0.29552(13) 1.01607(12) 0.42621(9) 0.0245(2) Uani 1 . 1 .
 H9 H -0.324(3) 0.928(3) 0.466(2) 0.055(7) Uani 1 . 1 .
 O10 O 0.12100(13) 1.09824(13) 0.53028(10) 0.0286(3) Uani 1 . 1 .
 H10 H 0.156(3) 1.010(3) 0.583(2) 0.064(8) Uani 1 . 1 .
 O11 O -0.10832(10) 0.98725(10) 0.67145(6) 0.01785(19) Uani 1 . 1 .
 C1 C -0.20477(16) 0.78248(16) 0.85893(11) 0.0215(3) Uani 1 . 1 .
 H1 H -0.2929(19) 0.768(2) 0.7617(11) 0.035(5) Uani 1 . 1 .
 C2 C -0.31592(19) 0.7635(2) 0.95702(13) 0.0283(3) Uani 1 . 1 .
 H2a H -0.364(3) 0.647(3) 0.951(2) 0.066(6) Uani 1 . 1 .
 H2b H -0.433(2) 0.850(2) 0.9357(14) 0.042(5) Uani 1 . 1 .
 C3 C -0.05769(17) 0.66280(16) 0.87418(12) 0.0234(3) Uani 1 . 1 .
 H3a H 0.023(2) 0.666(2) 0.9718(12) 0.048(5) Uani 1 . 1 .
 C4 C 0.06425(17) 0.69747(16) 0.78534(11) 0.0222(3) Uani 1 . 1 .
 H4a H -0.0116(18) 0.685(2) 0.6871(14) 0.044(5) Uani 1 . 1 .
 C5 C 0.13598(16) 0.85937(16) 0.81241(11) 0.0195(3) Uani 1 . 1 .
 H5a H 0.2105(19) 0.864(2) 0.9118(14) 0.043(5) Uani 1 . 1 .
 C6 C -0.01488(16) 0.97607(17) 0.79974(10) 0.0178(3) Uani 1 . 1 .
 H6 H 0.034(2) 1.088(2) 0.8342(14) 0.038(4) Uani 1 . 1 .
 C7 C -0.13094(14) 1.14126(14) 0.62429(10) 0.0161(3) Uani 1 . 1 .
 C8 C 0.04381(17) 1.20283(18) 0.60297(13) 0.0226(3) Uani 1 . 1 .
 H8a H 0.1313(17) 1.225(3) 0.6925(15) 0.056(6) Uani 1 . 1 .
 H8b H 0.021(2) 1.313(2) 0.5540(15) 0.045(5) Uani 1 . 1 .
 C9 C -0.28559(16) 1.14274(16) 0.50719(11) 0.0171(3) Uani 1 . 1 .
 H9a H -0.2692(17) 1.243(2) 0.4530(13) 0.034(4) Uani 1 . 1 .
 C10 C -0.44509(15) 1.16726(17) 0.56482(11) 0.0189(3) Uani 1 . 1 .
 H10a H -0.4852(19) 1.058(2) 0.5995(15) 0.040(5) Uani 1 . 1 .
 C11 C -0.37139(16) 1.27257(17) 0.67626(11) 0.0199(3) Uani 1 . 1 .
 H11 H -0.383(2) 1.394(2) 0.6479(14) 0.045(5) Uani 1 . 1 .
 C12 C -0.45339(19) 1.25199(18) 0.78938(13) 0.0278(3) Uani 1 . 1 .
 H12a H -0.593(2) 1.293(2) 0.7613(15) 0.056(6) Uani 1 . 1 .
 H12b H -0.380(3) 1.324(3) 0.8690(15) 0.071(7) Uani 1 . 1 .

loop_
  _atom_site_aniso_label
  _atom_site_aniso_U_11
  _atom_site_aniso_U_22
  _atom_site_aniso_U_33
  _atom_site_aniso_U_23
  _atom_site_aniso_U_13
  _atom_site_aniso_U_12
 O1 0.0251(4) 0.0192(6) 0.0208(4) 0.0000(4) 0.0092(3) 0.0008(4)
 O2 0.0416(6) 0.0400(8) 0.0249(4) 0.0072(5) 0.0150(4) 0.0075(6)
 H2 0.07(2) 0.05(2) 0.22(3) 0.07(2) 0.05(2) 0.015(18)
 O3 0.0499(7) 0.0217(7) 0.0622(7) -0.0065(6) 0.0245(6) -0.0095(6)
 H3 0.09(2) 0.10(3) 0.21(4) -0.03(3) 0.09(2) 0.02(2)
 O4 0.0506(7) 0.0272(6) 0.0361(5) 0.0095(5) 0.0210(5) 0.0169(5)
 H4 0.044(14) 0.07(2) 0.13(2) 0.039(18) 0.065(16) 0.022(15)
 O5 0.0217(5) 0.0295(7) 0.0291(5) 0.0030(5) 0.0091(4) 0.0027(4)
 H5 0.072(18) 0.06(2) 0.053(15) 0.017(14) 0.048(14) 0.021(15)
 O6 0.0175(4) 0.0208(5) 0.0246(4) -0.0058(4) 0.0029(3) 0.0017(4)
 O7 0.0283(5) 0.0405(7) 0.0327(5) 0.0062(5) 0.0124(4) -0.0009(5)
 H7 0.034(14) 0.14(3) 0.073(18) -0.015(18) 0.021(13) -0.002(19)
 O8 0.0181(5) 0.0353(7) 0.0298(5) 0.0066(5) 0.0020(4) 0.0033(5)
 H8 0.079(17) 0.051(19) 0.033(12) 0.021(12) 0.027(12) 0.040(15)
 O9 0.0263(5) 0.0254(7) 0.0216(4) -0.0050(4) 0.0052(4) -0.0029(5)
 H9 0.046(15) 0.058(19) 0.069(15) -0.013(16) 0.030(12) 0.007(14)
 O10 0.0220(5) 0.0374(8) 0.0295(5) 0.0033(5) 0.0126(4) 0.0002(5)
 H10 0.071(16) 0.09(3) 0.046(15) -0.014(15) 0.037(13) -0.007(18)
 O11 0.0190(4) 0.0163(5) 0.0179(4) 0.0004(4) 0.0033(3) -0.0012(4)
 C1 0.0237(7) 0.0215(8) 0.0198(6) 0.0003(6) 0.0061(5) -0.0019(6)
 H1 0.044(10) 0.036(13) 0.020(8) 0.008(8) -0.003(7) -0.006(9)
 C2 0.0261(7) 0.0315(11) 0.0298(6) 0.0054(7) 0.0113(5) -0.0015(7)
 H2a 0.074(15) 0.038(16) 0.100(17) -0.008(13) 0.049(12) 0.000(13)
 H2b 0.028(10) 0.075(17) 0.031(9) 0.009(10) 0.023(8) 0.007(10)
 C3 0.0291(7) 0.0176(8) 0.0247(6) 0.0001(6) 0.0085(5) -0.0004(6)
 H3a 0.055(11) 0.064(16) 0.028(10) 0.011(9) 0.013(8) 0.013(11)
 C4 0.0311(7) 0.0163(8) 0.0204(6) 0.0005(5) 0.0084(5) 0.0031(5)
 H4a 0.049(11) 0.046(13) 0.037(10) -0.017(9) 0.010(8) 0.008(10)
 C5 0.0196(6) 0.0195(8) 0.0189(6) 0.0002(5) 0.0032(4) 0.0010(5)
 H5a 0.033(10) 0.058(15) 0.034(9) -0.001(9) 0.002(8) -0.01(1)
 C6 0.0189(6) 0.0173(8) 0.0173(5) -0.0005(5) 0.0044(4) 0.0002(5)
 H6 0.050(11) 0.021(11) 0.041(10) 0.002(9) 0.004(8) 0.012(9)
 C7 0.0142(5) 0.0159(7) 0.0185(5) 0.0006(5) 0.0046(4) -0.0002(5)
 C8 0.0152(6) 0.0238(9) 0.0294(7) 0.0025(6) 0.0060(5) -0.0043(6)
 H8a 0.008(8) 0.099(18) 0.068(11) 0.009(13) 0.021(8) -0.013(11)
 H8b 0.032(10) 0.045(14) 0.060(12) 0.002(11) 0.013(9) -0.002(9)
 C9 0.0175(6) 0.0162(8) 0.0179(5) 0.0012(5) 0.0043(4) -0.0012(5)
 H9a 0.024(8) 0.033(12) 0.041(9) -0.023(9) -0.003(7) -0.001(9)
 C10 0.0153(6) 0.0205(8) 0.0210(5) 0.0027(5) 0.0043(4) 0.0007(5)
 H10a 0.037(9) 0.026(13) 0.054(11) 0.003(9) 0.007(8) -0.003(9)
 C11 0.0179(6) 0.0180(9) 0.0244(6) -0.0022(6) 0.0060(4) 0.0016(5)
 H11 0.052(12) 0.036(13) 0.048(11) -0.002(10) 0.014(9) 0.02(1)
 C12 0.0261(7) 0.0318(10) 0.0290(7) -0.0032(6) 0.0134(5) 0.0019(7)
 H12a 0.024(9) 0.078(17) 0.067(11) -0.000(11) 0.013(9) 0.027(10)
 H12b 0.048(12) 0.12(2) 0.039(10) -0.044(12) 0.005(9) -0.030(12)

loop_
  _geom_bond_atom_site_label_1
  _geom_bond_atom_site_label_2
  _geom_bond_distance
  _geom_bond_site_symmetry_2
  _geom_bond_publ_flag
 O1 C1 1.4424(16) . ?
 O1 C6 1.4138(14) . ?
 O2 C2 1.4214(17) . ?
 O3 C3 1.4138(17) . ?
 O4 C4 1.4302(16) . ?
 O5 C5 1.4240(15) . ?
 O6 C7 1.4083(13) . ?
 O6 C11 1.4482(14) . ?
 O7 C12 1.4225(19) . ?
 O8 C10 1.4206(15) . ?
 O9 C9 1.4035(16) . ?
 O10 C8 1.4243(18) . ?
 O11 C6 1.4229(13) . ?
 O11 C7 1.4343(15) . ?
 C2 C1 1.5241(17) . ?
 C3 C1 1.5293(18) . ?
 C4 C3 1.5272(17) . ?
 C5 C4 1.5223(19) . ?
 C6 C5 1.5354(17) . ?
 C8 C7 1.5259(16) . ?
 C9 C7 1.5415(15) . ?
 C9 C10 1.5243(16) . ?
 C11 C10 1.5251(18) . ?
 C12 C11 1.5168(16) . ?

loop_
  _geom_angle_atom_site_label_1
  _geom_angle_atom_site_label_2
  _geom_angle_atom_site_label_3
  _geom_angle
  _geom_angle_site_symmetry_1
  _geom_angle_site_symmetry_3
  _geom_angle_publ_flag
 C1 O1 C6 116.03(9) . . ?
 C7 O6 C11 111.83(8) . . ?
 C6 O11 C7 114.12(9) . . ?
 O1 C1 C2 105.82(11) . . ?
 O1 C1 C3 110.58(10) . . ?
 C2 C1 C3 112.19(11) . . ?
 O2 C2 C1 111.46(11) . . ?
 O3 C3 C1 106.00(11) . . ?
 O3 C3 C4 112.48(11) . . ?
 C1 C3 C4 110.57(11) . . ?
 O4 C4 C3 107.79(11) . . ?
 O4 C4 C5 111.58(11) . . ?
 C3 C4 C5 108.3(1) . . ?
 O5 C5 C4 110.32(10) . . ?
 O5 C5 C6 110.28(10) . . ?
 C4 C5 C6 111.0(1) . . ?
 O1 C6 O11 110.21(9) . . ?
 O1 C6 C5 110.91(10) . . ?
 O11 C6 C5 110.16(9) . . ?
 O6 C7 O11 110.90(8) . . ?
 O6 C7 C8 107.27(10) . . ?
 O6 C7 C9 105.04(9) . . ?
 O11 C7 C8 109.99(10) . . ?
 O11 C7 C9 108.23(10) . . ?
 C8 C7 C9 115.31(9) . . ?
 O10 C8 C7 111.04(12) . . ?
 O9 C9 C7 115.69(10) . . ?
 O9 C9 C10 115.63(11) . . ?
 C7 C9 C10 102.57(9) . . ?
 O8 C10 C9 112.46(10) . . ?
 O8 C10 C11 111.71(12) . . ?
 C9 C10 C11 102.44(10) . . ?
 O6 C11 C10 105.45(10) . . ?
 O6 C11 C12 109.8(1) . . ?
 C10 C11 C12 114.87(11) . . ?
 O7 C12 C11 112.89(11) . . ?

