TITL caf_ag3_a.res in Fm-3m
REM Old TITL CaF_Ag3 in Fm-3m
REM SHELXT solution in Fm-3m
REM R1 0.012, Rweak 0.001, Alpha 0.002, Orientation as input
REM Formula found by SHELXT: F2 Ca
CELL 0.56087 5.450952 5.450952 5.450952 90 90 90
ZERR 4 0.000052 0.000052 0.000052 0 0 0
LATT 4
SYMM -X,-Y,+Z
SYMM -X,+Y,-Z
SYMM +X,-Y,-Z
SYMM +Z,+X,+Y
SYMM +Z,-X,-Y
SYMM -Z,-X,+Y
SYMM -Z,+X,-Y
SYMM +Y,+Z,+X
SYMM -Y,+Z,-X
SYMM +Y,-Z,-X
SYMM -Y,-Z,+X
SYMM +Y,+X,-Z
SYMM -Y,-X,-Z
SYMM +Y,-X,+Z
SYMM -Y,+X,+Z
SYMM +X,+Z,-Y
SYMM -X,+Z,+Y
SYMM -X,-Z,-Y
SYMM +X,-Z,+Y
SYMM +Z,+Y,-X
SYMM +Z,-Y,+X
SYMM -Z,+Y,+X
SYMM -Z,-Y,-X
SFAC Ca F
DISP Ca 0.1378 0.1937 651.9347
DISP F 0.006 0.0061 27.6988
UNIT 4 8

L.S. 10
PLAN  20
CONF
MORE -1
fmap 2
acta 
LIST -6
WGHT 0.021959 0.285951
FVAR 5.65548
REM <olex2.extras>
REM <HklSrc "%.\\CaF_Ag3.hkl">
REM </olex2.extras>

Ca01  1     0.50000  0.50000  0.50000  10.02083  0.00333  0.00333  0.00333 =
 0.00000  0.00000  0.00000 
F002  2     0.25000  0.75000  0.75000  10.04167  0.00492  0.00492  0.00492 =
 0.00000  0.00000  0.00000 
HKLF 4

END
Q1 1 0.388889 0.388889 0.388889 11 0.05 0.32
Q2 1 0.277778 0.5 0.5 11 0.05 0.16
Q3 1 0 0.75 0.75 11 0.05 0.15
Q4 1 0.361111 0.861111 0.638889 11 0.05 0.14
Q5 1 0.5 0.5 1 11 0.05 0.03

  REM The information below was added by Olex2.
  REM
  REM R1 = 0.0128 for 96 Fo > 4sig(Fo) and 0.0128 for all 96 data
  REM 3 parameters refined using 0 restraints
  REM Highest difference peak 0.6602, deepest hole -0.4216
  REM Mean Shift 0.0001, Max Shift 0.0001.

  REM +++ Tabular Listing of Refinement Information +++
  REM R1_all = 0.0128
  REM R1_gt = 0.0128
  REM wR_ref = 0.0347
  REM GOOF = 0.9018
  REM Shift_max = 0.0001
  REM Shift_mean = 0.0001
  REM Reflections_all = 96
  REM Reflections_gt = 96
  REM Parameters = 3
  REM Hole = -0.4216
  REM Peak = 0.6602
  REM Flack = n/a

  