data_Cytidine_Cu_12012021
_audit_creation_method            
 'Olex2: 2025.07.13 svn.rb7424aed MSC:194435211 on WIN64, Python: 3.8.10, wxWidgets: 3.2.5 for OlexSys'
_chemical_name_common              '?'
_chemical_name_systematic          '?'
_chemical_formula_moiety           'C9 H13 N3 O5'
_chemical_formula_sum              'C9 H13 N3 O5'
_chemical_formula_weight           243.22
_chemical_melting_point            ?
_space_group_crystal_system        'orthorhombic'
_space_group_IT_number             19
_space_group_name_H-M_alt          'P 21 21 21'
_space_group_name_Hall             'P 2ac 2ab'
loop_
  _space_group_symop_id
  _space_group_symop_operation_xyz
 1 +X,+Y,+Z
 2 1/2-X,-Y,1/2+Z
 3 1/2+X,1/2-Y,-Z
 4 -X,1/2+Y,1/2-Z

_cell_length_a                     5.12679(7)
_cell_length_b                     14.0105(2)
_cell_length_c                     14.7807(2)
_cell_angle_alpha                  90
_cell_angle_beta                   90
_cell_angle_gamma                  90
_cell_volume                       1061.68(3)
_cell_formula_units_Z              4
_exptl_crystal_size_max            0.07
_exptl_crystal_size_mid            0.1
_exptl_crystal_size_min            0.103
_diffrn_reflns_av_R_equivalents    0.0228
_diffrn_reflns_av_unetI/netI       0.0259
_diffrn_reflns_limit_h_max         3
_diffrn_reflns_limit_h_min         -6
_diffrn_reflns_limit_k_max         16
_diffrn_reflns_limit_k_min         -17
_diffrn_reflns_limit_l_max         18
_diffrn_reflns_limit_l_min         -17
_diffrn_reflns_number              4782
_diffrn_reflns_theta_max           78.03
_diffrn_reflns_theta_min           2.99
_diffrn_ambient_temperature        ?
_diffrn_radiation_wavelength       1.54184
_reflns_number_total               1924
_refine_diff_density_max           0.09
loop_
  _atom_site_label
  _atom_site_type_symbol
  _atom_site_fract_x
  _atom_site_fract_y
  _atom_site_fract_z
  _atom_site_U_iso_or_equiv
  _atom_site_adp_type
  _atom_site_occupancy
  _atom_site_refinement_flags_posn
  _atom_site_site_symmetry_order
  _atom_site_disorder_group
 O1 O 0.28953(15) -0.45548(5) -0.20960(5) 0.03996(19) Uani 1 . 1 .
 O5 O -0.13875(19) -0.58083(6) -0.57677(7) 0.0486(2) Uani 1 . 1 .
 H5 H -0.014(4) -0.5574(13) -0.6211(15) 0.073(6) Uani 1 . 1 .
 O2 O -0.26305(13) -0.48570(6) -0.40070(5) 0.03652(18) Uani 1 . 1 .
 N2 N 0.11889(16) -0.53790(6) -0.32669(6) 0.03245(19) Uani 1 . 1 .
 O3 O 0.06205(17) -0.32587(6) -0.55232(6) 0.0439(2) Uani 1 . 1 .
 H3 H 0.033(4) -0.3503(12) -0.6157(13) 0.061(5) Uani 1 . 1 .
 O4 O -0.02782(17) -0.28669(6) -0.37111(6) 0.0434(2) Uani 1 . 1 .
 H4 H -0.118(5) -0.2564(15) -0.4207(11) 0.085(7) Uani 1 . 1 .
 C C -0.05800(18) -0.45607(8) -0.34444(7) 0.0309(2) Uani 1 . 1 .
 H H -0.132(2) -0.4325(10) -0.2785(9) 0.052(4) Uani 1 . 1 .
 N3 N 0.45030(18) -0.60375(6) -0.23456(6) 0.0367(2) Uani 1 . 1 .
 C4 C 0.29053(19) -0.53005(7) -0.25441(7) 0.0308(2) Uani 1 . 1 .
 C1 C 0.0828(2) -0.37507(7) -0.39481(7) 0.0297(2) Uani 1 . 1 .
 H1 H 0.294(2) -0.3747(9) -0.3789(9) 0.045(3) Uani 1 . 1 .
 C5 C 0.1173(3) -0.61801(8) -0.37870(9) 0.0410(3) Uani 1 . 1 .
 H5a H -0.019(3) -0.6202(10) -0.4349(11) 0.063(4) Uani 1 . 1 .
 C6 C -0.2497(2) -0.43992(8) -0.48776(7) 0.0320(2) Uani 1 . 1 .
 H6 H -0.389(3) -0.3779(10) -0.4893(10) 0.059(4) Uani 1 . 1 .
 C7 C 0.0285(2) -0.40232(8) -0.49273(7) 0.0303(2) Uani 1 . 1 .
 H7 H 0.167(3) -0.4627(10) -0.5116(10) 0.061(4) Uani 1 . 1 .
 C8 C 0.2827(3) -0.69094(9) -0.36172(9) 0.0463(3) Uani 1 . 1 .
 H8 H 0.281(4) -0.7538(11) -0.4034(10) 0.070(4) Uani 1 . 1 .
 C9 C 0.4553(2) -0.68088(8) -0.28693(8) 0.0380(3) Uani 1 . 1 .
 N N 0.6283(3) -0.74818(10) -0.2667(1) 0.0545(3) Uani 1 . 1 .
 H9a H 0.767(4) -0.7365(15) -0.2165(14) 0.085(7) Uani 1 . 1 .
 H9b H 0.616(5) -0.8068(16) -0.2992(15) 0.085(7) Uani 1 . 1 .
 C10 C -0.3258(2) -0.5095(1) -0.56172(9) 0.0428(3) Uani 1 . 1 .
 H10a H -0.359(3) -0.4672(12) -0.6245(11) 0.072(5) Uani 1 . 1 .
 H10b H -0.515(3) -0.5455(12) -0.5410(11) 0.074(5) Uani 1 . 1 .

loop_
  _atom_site_aniso_label
  _atom_site_aniso_U_11
  _atom_site_aniso_U_22
  _atom_site_aniso_U_33
  _atom_site_aniso_U_23
  _atom_site_aniso_U_13
  _atom_site_aniso_U_12
 O1 0.0511(4) 0.0363(4) 0.0325(4) -0.0039(3) -0.0076(3) 0.0065(4)
 O5 0.0602(5) 0.0416(5) 0.0439(5) -0.0110(4) 0.0060(4) -0.0079(4)
 H5 0.086(13) 0.061(12) 0.071(14) -0.017(11) 0.019(12) -0.048(11)
 O2 0.0297(3) 0.0452(4) 0.0347(4) 0.0033(3) 0.0013(3) -0.0046(3)
 N2 0.0387(4) 0.0318(4) 0.0268(4) 0.0010(4) -0.0027(4) 0.0013(4)
 O3 0.0580(5) 0.0415(5) 0.0322(4) 0.0010(4) 0.0017(4) -0.0115(4)
 H3 0.080(13) 0.05(1) 0.054(11) 0.008(10) -0.015(10) -0.010(9)
 O4 0.0566(5) 0.0369(4) 0.0368(4) -0.0070(4) -0.0056(4) 0.0096(4)
 H4 0.136(18) 0.091(15) 0.029(10) 0.019(11) -0.023(11) -0.004(15)
 C 0.0311(5) 0.0344(5) 0.0272(5) 0.0016(4) 0.0007(4) 0.0030(4)
 H 0.056(8) 0.068(9) 0.032(8) -0.007(7) 0.018(6) 0.019(7)
 N3 0.0473(5) 0.0341(4) 0.0286(4) 0.0034(4) -0.0055(4) 0.0054(4)
 C4 0.0382(5) 0.0303(5) 0.0239(5) 0.0020(4) -0.0023(4) 0.0013(4)
 C1 0.0305(5) 0.0298(5) 0.0288(5) -0.0019(4) -0.0021(4) 0.0010(4)
 H1 0.038(7) 0.042(7) 0.057(8) -0.003(7) -0.017(7) -0.008(6)
 C5 0.0518(6) 0.0341(6) 0.0372(6) -0.0042(5) -0.0102(5) 0.0036(5)
 H5a 0.081(10) 0.042(8) 0.065(10) -0.012(8) -0.033(9) 0.030(8)
 C6 0.0277(5) 0.0400(6) 0.0284(5) -0.0012(4) -0.0017(4) 0.0007(4)
 H6 0.047(7) 0.070(9) 0.059(10) -0.011(9) -0.008(7) 0.019(8)
 C7 0.0310(5) 0.0334(5) 0.0264(5) -0.0027(4) 0.0015(4) -0.0023(4)
 H7 0.055(8) 0.075(9) 0.053(9) -0.023(9) -0.001(7) 0.022(8)
 C8 0.0645(7) 0.0332(6) 0.0412(6) -0.0064(5) -0.0118(6) 0.0065(6)
 H8 0.102(12) 0.053(9) 0.056(10) -0.006(9) -0.009(10) 0.005(10)
 C9 0.0500(6) 0.0304(5) 0.0336(5) 0.0033(4) -0.0019(5) 0.0048(5)
 N 0.0692(8) 0.0390(6) 0.0553(7) 0.0020(6) -0.0106(6) 0.0146(6)
 H9a 0.087(14) 0.086(14) 0.082(14) 0.040(12) -0.044(13) -0.005(12)
 H9b 0.111(16) 0.065(13) 0.079(15) 0.003(12) -0.013(13) -0.037(13)
 C10 0.0381(6) 0.0528(7) 0.0374(7) -0.0093(6) -0.0040(5) -0.0063(5)
 H10a 0.083(11) 0.090(11) 0.042(9) -0.010(9) -0.017(8) 0.007(9)
 H10b 0.036(8) 0.095(11) 0.090(14) -0.031(10) 0.009(8) -0.029(8)

