data_alanine
_audit_creation_method            
 'Olex2: Jun  4 2023 12:35:11 MSC:193632532 on WIN64, Python: 3.8.6, wxWidgets: 3.1.5'
_chemical_name_common              '?'
_chemical_name_systematic          '?'
_chemical_formula_moiety           'C3 H7 N O2'
_chemical_formula_sum              'C3 H7 N O2'
_chemical_formula_weight           89.09
_chemical_melting_point            ?
_space_group_crystal_system        'orthorhombic'
_space_group_IT_number             19
_space_group_name_H-M_alt          'P 21 21 21'
_space_group_name_Hall             'P 2ac 2ab'
loop_
  _space_group_symop_id
  _space_group_symop_operation_xyz
 1 +X,+Y,+Z
 2 1/2-X,-Y,1/2+Z
 3 1/2+X,1/2-Y,-Z
 4 -X,1/2+Y,1/2-Z

_cell_length_a                     5.791(2)
_cell_length_b                     5.944(2)
_cell_length_c                     12.269(2)
_cell_angle_alpha                  90
_cell_angle_beta                   90
_cell_angle_gamma                  90
_cell_volume                       422.3(2)
_cell_formula_units_Z              4
_diffrn_reflns_av_R_equivalents    0.0000
_diffrn_reflns_av_unetI/netI       0.0109
_diffrn_reflns_limit_h_max         6
_diffrn_reflns_limit_h_min         -6
_diffrn_reflns_limit_k_max         7
_diffrn_reflns_limit_k_min         -7
_diffrn_reflns_limit_l_max         14
_diffrn_reflns_limit_l_min         -14
_diffrn_reflns_number              776
_diffrn_reflns_theta_max           69.07
_diffrn_reflns_theta_min           7.22
_diffrn_ambient_temperature        100.15
_diffrn_radiation_wavelength       1.54178
_reflns_number_total               776
_refine_diff_density_max           0.1
loop_
  _atom_site_label
  _atom_site_type_symbol
  _atom_site_fract_x
  _atom_site_fract_y
  _atom_site_fract_z
  _atom_site_U_iso_or_equiv
  _atom_site_adp_type
  _atom_site_occupancy
  _atom_site_refinement_flags_posn
  _atom_site_site_symmetry_order
  _atom_site_disorder_group
 C1 C 0.645778 0.967999 0.338776 0.010409 Uani 1 . 1 .
 H1 H 0.656972 0.924089 0.253142 0.022678 Uani 1 . 1 .
 C2 C 0.399972 1.055073 0.35909 0.010093 Uani 1 . 1 .
 O3 O 0.37519 1.226969 0.416187 0.013921 Uani 1 . 1 .
 O4 O 0.239017 0.942582 0.315814 0.013765 Uani 1 . 1 .
 N5 N 0.816659 1.148531 0.36238 0.011638 Uani 1 . 1 .
 C6 C 0.696735 0.762337 0.409198 0.014542 Uani 1 . 1 .
 H6b H 0.864154 0.691252 0.39032 0.033255 Uani 1 . 1 .
 H6a H 0.569087 0.633406 0.394655 0.035247 Uani 1 . 1 .
 H6c H 0.693761 0.806353 0.494878 0.034677 Uani 1 . 1 .
 H5a H 0.798243 1.204984 0.439885 0.026286 Uani 1 . 1 .
 H5b H 0.789051 1.278912 0.309377 0.027243 Uani 1 . 1 .
 H5c H 0.979227 1.088252 0.351191 0.031636 Uani 1 . 1 .

loop_
  _atom_site_aniso_label
  _atom_site_aniso_U_11
  _atom_site_aniso_U_22
  _atom_site_aniso_U_33
  _atom_site_aniso_U_23
  _atom_site_aniso_U_13
  _atom_site_aniso_U_12
 C1 0.008562 0.012298 0.010367 -0.000829 0.000333 0.001591
 H1 0.023413 0.032104 0.012516 -0.004392 0.00057 -0.000596
 C2 0.009003 0.011882 0.009393 -0.000526 0.000057 0.000073
 O3 0.012017 0.015282 0.014465 -0.003868 0.000788 0.001238
 O4 0.008808 0.016761 0.015727 -0.003809 -0.0011 -0.000555
 N5 0.008913 0.013158 0.012844 -0.000814 0.000072 -0.000476
 C6 0.012159 0.013795 0.017674 0.001756 -0.000671 0.000724
 H6b 0.014876 0.038329 0.046562 0.001846 0.001252 0.011531
 H6a 0.028421 0.033796 0.043524 -0.003633 -0.004619 -0.006931
 H6c 0.047775 0.037305 0.018952 0.002368 -0.001054 0.006915
 H5a 0.02915 0.02863 0.021077 -0.005957 0.007246 -0.007936
 H5b 0.027475 0.015748 0.038507 0.001864 -0.000473 0.005273
 H5c 0.026629 0.035056 0.033223 -0.002066 -0.008009 -0.006332

