data_1EJG_054_HAR-ELMO
_audit_creation_method            
 'Olex2: 2024.02.16 svn.r378c4104 MSC:192930153 on WIN64, Python: 3.8.10, wxWidgets: 3.0.4 for OlexSys'
_chemical_name_common              '?'
_chemical_name_systematic          '?'
_chemical_formula_moiety           'C202 H307 N55 O64 S6, 8(H)'
_chemical_formula_sum              'C202 H315 N55 O64 S6'
_chemical_formula_weight           4730.48
_chemical_melting_point            ?
_space_group_crystal_system        'monoclinic'
_space_group_IT_number             4
_space_group_name_H-M_alt          'P 1 21 1'
_space_group_name_Hall             'P 2yb'
loop_
  _space_group_symop_id
  _space_group_symop_operation_xyz
 1 +X,+Y,+Z
 2 -X,1/2+Y,-Z

_cell_length_a                     40.824
_cell_length_b                     18.498
_cell_length_c                     22.371
_cell_angle_alpha                  90
_cell_angle_beta                   90.47
_cell_angle_gamma                  90
_cell_volume                       16893.16859
_cell_formula_units_Z              2
_diffrn_reflns_av_R_equivalents    0.0000
_diffrn_reflns_av_unetI/netI       0.0612
_diffrn_reflns_limit_h_max         75
_diffrn_reflns_limit_h_min         -75
_diffrn_reflns_limit_k_max         34
_diffrn_reflns_limit_k_min         0
_diffrn_reflns_limit_l_max         41
_diffrn_reflns_limit_l_min         0
_diffrn_reflns_number              112233
_diffrn_reflns_theta_max           30.02
_diffrn_reflns_theta_min           0.69
_diffrn_ambient_temperature        ?
_diffrn_radiation_wavelength       0.54
_reflns_number_total               112233
_refine_diff_density_max           1.14
loop_
  _atom_site_label
  _atom_site_type_symbol
  _atom_site_fract_x
  _atom_site_fract_y
  _atom_site_fract_z
  _atom_site_U_iso_or_equiv
  _atom_site_adp_type
  _atom_site_occupancy
  _atom_site_refinement_flags_posn
  _atom_site_site_symmetry_order
  _atom_site_disorder_group
 N3_1 N 0.414256 0.762984 0.154459 0.065287 Uani 1 . 1 .
 H3A_1 H 0.435625 0.754995 0.121729 0.06466 Uiso 1 . 1 .
 H3B_1 H 0.415188 0.820483 0.17993 0.06824 Uiso 1 . 1 .
 H3C_1 H 0.396821 0.79339 0.107715 0.14178 Uiso 1 . 1 .
 C6_1 C 0.415733 0.694302 0.190519 0.048405 Uani 1 . 1 .
 H6_1 H 0.420329 0.643645 0.167108 0.04001 Uiso 1 . 1 .
 C7_1 C 0.443875 0.696521 0.232406 0.053235 Uani 1 . 1 .
 H7_1 H 0.440686 0.740572 0.261226 0.04918 Uiso 1 . 1 .
 C8_1 C 0.44746 0.628115 0.270531 0.082812 Uani 1 . 1 .
 H8A_1 H 0.475358 0.608073 0.274196 0.07977 Uiso 1 . 1 .
 H8B_1 H 0.438831 0.566124 0.224728 0.04691 Uiso 1 . 1 .
 H8C_1 H 0.444308 0.64296 0.31961 0.10917 Uiso 1 . 1 .
 O3_1 O 0.472844 0.705527 0.198349 0.086962 Uani 1 . 1 .
 H3_1 H 0.492003 0.736736 0.223955 0.10896 Uiso 1 . 1 .
 C5_1 C 0.383483 0.692119 0.222743 0.042016 Uani 1 . 1 .
 O2_1 O 0.372665 0.747711 0.245012 0.069787 Uani 1 . 1 .
 N2_2 N 0.37017 0.626404 0.228416 0.035937 Uani 1 . 1 .
 H2_2 H 0.380516 0.586261 0.211158 0.05865 Uiso 1 . 1 .
 C4_2 C 0.340217 0.618951 0.263545 0.039026 Uani 1 . 1 .
 H4_2 H 0.331018 0.66785 0.27421 0.03526 Uiso 1 . 1 .
 C9_2 C 0.314849 0.57912 0.228772 0.067478 Uani 1 . 1 .
 H9_2 H 0.289117 0.564574 0.259796 0.08849 Uiso 1 . 1 .
 C10_2 C 0.303702 0.617867 0.172803 0.101987 Uani 1 . 1 .
 H10A_2 H 0.284712 0.592873 0.147572 0.1077 Uiso 1 . 1 .
 H10B_2 H 0.321487 0.627267 0.144697 0.06352 Uiso 1 . 1 .
 H10C_2 H 0.268637 0.731853 0.187596 0.01804 Uiso 1 . 1 .
 O4_2 O 0.325523 0.512463 0.213148 0.09291 Uani 1 . 1 .
 H4A_2 H 0.341463 0.479357 0.22482 0.0825 Uiso 1 . 1 .
 C3_2 C 0.34841 0.581749 0.322786 0.032533 Uani 1 . 1 .
 O1_2 O 0.369033 0.53264 0.32709 0.038896 Uani 1 . 1 .
 N1_3 N 0.330776 0.604903 0.369389 0.029892 Uani 1 . 1 .
 H1_3 H 0.312366 0.644763 0.362805 0.02717 Uiso 1 . 1 .
 C2_3 C 0.335305 0.577148 0.429557 0.026159 Uani 1 . 1 .
 H2A_3 H 0.34739 0.533251 0.424189 0.02847 Uiso 1 . 1 .
 C1_3 C 0.35245 0.632677 0.470833 0.029826 Uani 1 . 1 .
 H1A_3 H 0.360384 0.608925 0.507944 0.02511 Uiso 1 . 1 .
 H1B_3 H 0.33843 0.673085 0.477723 0.0362 Uiso 1 . 1 .
 S2_3 S 0.390091 0.66874 0.441704 0.042054 Uani 1 . 1 .
 C11_3 C 0.300897 0.563034 0.454108 0.025657 Uani 1 . 1 .
 O5_3 O 0.279504 0.607897 0.447107 0.035727 Uani 1 . 1 .
 N4_4 N 0.296421 0.502005 0.484472 0.022174 Uani 1 . 1 .
 H4B_4 H 0.311602 0.464677 0.490167 0.03824 Uiso 1 . 1 .
 C12_4 C 0.263786 0.483764 0.5062 0.020713 Uani 1 . 1 .
 H12_4 H 0.250598 0.521834 0.497939 0.02314 Uiso 1 . 1 .
 C13_4 C 0.251089 0.415351 0.474521 0.023935 Uani 1 . 1 .
 H13A_4 H 0.265587 0.373972 0.477174 0.02958 Uiso 1 . 1 .
 H13B_4 H 0.230915 0.395717 0.49446 0.02457 Uiso 1 . 1 .
 S3_4 S 0.242662 0.428577 0.395292 0.025874 Uani 1 . 1 .
 C70_4 C 0.264328 0.472816 0.574008 0.020622 Uani 1 . 1 .
 O33_4 O 0.288098 0.447189 0.600365 0.027192 Uani 1 . 1 .
 N32_5 N 0.236465 0.491136 0.602355 0.021425 Uani 1 . 1 .
 C71_5 C 0.207407 0.527285 0.576097 0.023886 Uani 1 . 1 .
 H71A_5 H 0.199517 0.500844 0.545496 0.02118 Uiso 1 . 1 .
 H71B_5 H 0.212873 0.578239 0.563629 0.03655 Uiso 1 . 1 .
 C72_5 C 0.183161 0.526572 0.627927 0.029816 Uani 1 . 1 .
 H72A_5 H 0.172864 0.481725 0.631558 0.05116 Uiso 1 . 1 .
 H72B_5 H 0.168073 0.568981 0.625355 0.0437 Uiso 1 . 1 .
 C73_5 C 0.205576 0.537113 0.681866 0.030503 Uani 1 . 1 .
 H73A_5 H 0.195284 0.524526 0.721601 0.04366 Uiso 1 . 1 .
 H73B_5 H 0.214244 0.579445 0.685366 0.03481 Uiso 1 . 1 .
 C69_5 C 0.235711 0.491261 0.667905 0.023472 Uani 1 . 1 .
 H69_5 H 0.255279 0.511274 0.691089 0.03117 Uiso 1 . 1 .
 C68_5 C 0.232722 0.415803 0.69497 0.025744 Uani 1 . 1 .
 O32_5 O 0.239413 0.40736 0.748513 0.041486 Uani 1 . 1 .
 N31_6 N 0.221516 0.362603 0.65952 0.023034 Uani 1 . 1 .
 H31_6 H 0.217099 0.373747 0.620213 0.04383 Uiso 1 . 1 .
 C67_6 C 0.217515 0.289328 0.680761 0.022221 Uani 1 . 1 .
 H67_6 H 0.234309 0.273377 0.710951 0.02195 Uiso 1 . 1 .
 C74_6 C 0.184634 0.278833 0.711929 0.023112 Uani 1 . 1 .
 H74A_6 H 0.182553 0.235489 0.730015 0.03078 Uiso 1 . 1 .
 H74B_6 H 0.182262 0.312049 0.735806 0.03604 Uiso 1 . 1 .
 O34_6 O 0.159107 0.284283 0.667868 0.026706 Uani 1 . 1 .
 H34_6 H 0.138858 0.268276 0.685665 0.05998 Uiso 1 . 1 .
 C66_6 C 0.219079 0.23948 0.626373 0.023256 Uani 1 . 1 .
 O31_6 O 0.217318 0.263406 0.574927 0.026805 Uani 1 . 1 .
 N30_7 N 0.221762 0.169564 0.639265 0.028797 Uani 1 . 1 .
 H30_7 H 0.227149 0.159843 0.671486 0.04762 Uiso 1 . 1 .
 C65_7 C 0.221828 0.114792 0.591906 0.041926 Uani 1 . 1 .
 H65_7 H 0.240356 0.124569 0.567735 0.04222 Uiso 1 . 1 .
 C75_7 C 0.228913 0.041059 0.621447 0.085717 Uani 1 . 1 .
 H75_7 H 0.209773 0.036077 0.660298 0.0458 Uiso 1 . 1 .
 C78_7 C 0.214738 -0.023506 0.576585 0.094254 Uani 1 . 1 .
 H78A_7 H 0.194231 -0.008499 0.559333 0.14486 Uiso 1 R 1 .
 H78B_7 H 0.211572 -0.067054 0.599154 0.07384 Uiso 1 R 1 .
 H78C_7 H 0.230219 -0.032281 0.54534 0.1888 Uiso 1 R 1 .
 C76_7 C 0.262147 0.033115 0.646236 0.128907 Uani 1 . 1 .
 H76A_7 H 0.257268 0.057846 0.672704 0.07409 Uiso 1 . 1 .
 H76B_7 H 0.279838 -0.019367 0.673294 0.00142 Uiso 1 . 1 .
 C77_7 C 0.284198 0.022804 0.600395 0.256238 Uani 1 . 1 .
 H77A_7 H 0.306082 0.029976 0.615273 2 Uiso 1 R 1 .
 H77B_7 H 0.279759 0.056784 0.568922 2 Uiso 1 R 1 .
 H77C_7 H 0.282058 -0.025506 0.585178 0.10004 Uiso 1 R 1 .
 C64_7 C 0.190816 0.116481 0.555012 0.040487 Uani 1 . 1 .
 O30_7 O 0.192475 0.115075 0.499367 0.048107 Uani 1 . 1 .
 N29_8 N 0.162567 0.117021 0.583736 0.03709 Uani 1 . 1 .
 H29_8 H 0.16347 0.117233 0.626215 0.02905 Uiso 1 . 1 .
 C63_8 C 0.131416 0.117947 0.549186 0.065204 Uani 1 . 1 .
 H63_8 H 0.114516 0.067758 0.52031 0.09995 Uiso 1 . 1 .
 C79_8 C 0.097976 0.129751 0.597686 0.154864 Uani 1 . 1 .
 H79_8 H 0.104057 0.163604 0.629594 0.1596 Uiso 1 R 1 .
 C80_8 C 0.066436 0.159037 0.563268 0.107595 Uani 1 . 1 .
 H80A_8 H 0.065124 0.20171 0.546183 0.03907 Uiso 1 . 1 .
 H80B_8 H 0.05091 0.198779 0.610205 0.25568 Uiso 1 . 1 .
 H80C_8 H 0.067404 0.139744 0.521453 0.09664 Uiso 1 . 1 .
 C81_8 C 0.090484 0.056389 0.624517 0.13726 Uani 1 . 1 .
 H81A_8 H 0.129728 0.004697 0.653827 0.05349 Uiso 1 . 1 .
 H81B_8 H 0.075001 0.010851 0.599848 0.10057 Uiso 1 . 1 .
 H81C_8 H 0.073571 0.054358 0.659621 0.07966 Uiso 1 . 1 .
 C62_8 C 0.129745 0.184031 0.508357 0.033164 Uani 1 . 1 .
 O29_8 O 0.117451 0.178727 0.458113 0.035358 Uani 1 . 1 .
 N28_9 N 0.141064 0.246716 0.529556 0.02841 Uani 1 . 1 .
 H28_9 H 0.15135 0.244808 0.569376 0.02752 Uiso 1 . 1 .
 C61_9 C 0.140408 0.309606 0.491434 0.025562 Uani 1 . 1 .
 H61_9 H 0.120168 0.31772 0.473078 0.08552 Uiso 1 . 1 .
 C82_9 C 0.151504 0.376908 0.52575 0.029146 Uani 1 . 1 .
 H82A_9 H 0.136277 0.387262 0.563068 0.02329 Uiso 1 . 1 .
 H82B_9 H 0.14859 0.414149 0.500682 0.05046 Uiso 1 . 1 .
 H82C_9 H 0.172937 0.368063 0.545342 0.04055 Uiso 1 . 1 .
 C60_9 C 0.161046 0.297841 0.435068 0.021331 Uani 1 . 1 .
 O28_9 O 0.150872 0.318288 0.386068 0.024767 Uani 1 . 1 .
 N27_10 N 0.190093 0.265325 0.442533 0.02042 Uani 1 . 1 .
 H27_10 H 0.198456 0.244621 0.48618 0.03936 Uiso 1 . 1 .
 C59_10 C 0.210026 0.247366 0.390642 0.019943 Uani 1 . 1 .
 H59_10 H 0.211307 0.28935 0.361196 0.03248 Uiso 1 . 1 .
 C83_10 C 0.243331 0.217148 0.411403 0.023677 Uani 1 . 1 .
 H83A_10 H 0.254438 0.256024 0.433286 0.02152 Uiso 1 . 1 .
 H83B_10 H 0.239414 0.180353 0.435145 0.02013 Uiso 1 . 1 .
 C84_10 C 0.265386 0.193505 0.359471 0.027109 Uani 1 . 1 .
 H84A_10 H 0.284249 0.171586 0.379581 0.03006 Uiso 1 . 1 .
 H84B_10 H 0.254861 0.16095 0.338004 0.0443 Uiso 1 . 1 .
 C85_10 C 0.2775 0.254381 0.318467 0.031325 Uani 1 . 1 .
 H85A_10 H 0.291317 0.233705 0.287861 0.03268 Uiso 1 . 1 .
 H85B_10 H 0.261975 0.279141 0.300655 0.03104 Uiso 1 . 1 .
 N33_10 N 0.299297 0.301789 0.351724 0.034052 Uani 1 . 1 .
 H33_10 H 0.30593 0.283885 0.383271 0.08683 Uiso 1 . 1 .
 C86_10 C 0.313054 0.360433 0.327503 0.048033 Uani 1 . 1 .
 N34_10 N 0.306978 0.379165 0.271409 0.064618 Uani 1 . 1 .
 H34A_10 H 0.29591 0.343928 0.249755 0.03394 Uiso 1 . 1 .
 H34B_10 H 0.311101 0.419689 0.242409 0.04635 Uiso 1 . 1 .
 N35_10 N 0.331895 0.402355 0.363569 0.06455 Uani 1 . 1 .
 H35A_10 H 0.342229 0.435475 0.349171 0.0581 Uiso 1 . 1 .
 H35B_10 H 0.333476 0.410339 0.406672 0.05039 Uiso 1 . 1 .
 C58_10 C 0.192741 0.193546 0.348659 0.020876 Uani 1 . 1 .
 O27_10 O 0.193398 0.202086 0.294254 0.023855 Uani 1 . 1 .
 N26_11 N 0.178416 0.135971 0.374058 0.022784 Uani 1 . 1 .
 H26_11 H 0.18002 0.129779 0.416689 0.02532 Uiso 1 . 1 .
 C57_11 C 0.16151 0.08424 0.335951 0.023251 Uani 1 . 1 .
 H57_11 H 0.176684 0.066775 0.305283 0.02405 Uiso 1 . 1 .
 C87_11 C 0.1477 0.022533 0.372098 0.028458 Uani 1 . 1 .
 H87A_11 H 0.132222 0.042124 0.399688 0.03503 Uiso 1 . 1 .
 H87B_11 H 0.136787 -0.010616 0.343335 0.01593 Uiso 1 . 1 .
 O35_11 O 0.174225 -0.013786 0.40087 0.043093 Uani 1 . 1 .
 H35_11 H 0.168389 -0.047905 0.421183 0.06002 Uiso 1 . 1 .
 C56_11 C 0.133854 0.121346 0.299914 0.022201 Uani 1 . 1 .
 O26_11 O 0.128868 0.108231 0.246561 0.026532 Uani 1 . 1 .
 N25_12 N 0.115575 0.168973 0.330261 0.022797 Uani 1 . 1 .
 H25_12 H 0.119231 0.177079 0.368734 0.02317 Uiso 1 . 1 .
 C55_12 C 0.089254 0.20812 0.299948 0.02489 Uani 1 . 1 .
 H55_12 H 0.075621 0.174644 0.280042 0.03429 Uiso 1 . 1 .
 C88_12 C 0.0687 0.24876 0.343531 0.040781 Uani 1 . 1 .
 H88A_12 H 0.083502 0.270007 0.375089 0.05646 Uiso 1 . 1 .
 H88B_12 H 0.053158 0.285145 0.325064 0.02908 Uiso 1 . 1 .
 C89_12 C 0.047965 0.197836 0.382853 0.061186 Uani 1 . 1 .
 O36_12 O 0.040772 0.136098 0.364287 0.088563 Uani 1 . 1 .
 N36_12 N 0.037962 0.217895 0.433925 0.084546 Uani 1 . 1 .
 H36A_12 H 0.02638 0.18907 0.455271 0.0637 Uiso 1 R 1 .
 H36B_12 H 0.04278 0.260283 0.447114 0.01128 Uiso 1 R 1 .
 C54_12 C 0.103105 0.258995 0.252959 0.023494 Uani 1 . 1 .
 O25_12 O 0.087702 0.268674 0.204553 0.029782 Uani 1 . 1 .
 N24_13 N 0.130783 0.293387 0.266204 0.022934 Uani 1 . 1 .
 H24_13 H 0.14174 0.288554 0.299489 0.02891 Uiso 1 . 1 .
 C53_13 C 0.146572 0.342013 0.223072 0.022658 Uani 1 . 1 .
 H53_13 H 0.132759 0.38108 0.212358 0.01623 Uiso 1 . 1 .
 C90_13 C 0.176776 0.374867 0.253954 0.026348 Uani 1 . 1 .
 H90A_13 H 0.168668 0.395535 0.279132 0.04159 Uiso 1 . 1 .
 H90B_13 H 0.191414 0.340664 0.268087 0.02929 Uiso 1 . 1 .
 C91_13 C 0.193925 0.430143 0.214541 0.029218 Uani 1 . 1 .
 C92_13 C 0.217732 0.410649 0.175375 0.046011 Uani 1 . 1 .
 H92_13 H 0.223829 0.368875 0.17122 0.03314 Uiso 1 . 1 .
 C93_13 C 0.233072 0.464199 0.139477 0.066662 Uani 1 . 1 .
 H93_13 H 0.261173 0.462224 0.115102 0.09319 Uiso 1 . 1 .
 C94_13 C 0.224655 0.532853 0.142971 0.082793 Uani 1 . 1 .
 H94_13 H 0.227955 0.573734 0.120444 0.06296 Uiso 1 . 1 .
 C95_13 C 0.199411 0.555739 0.18706 0.071488 Uani 1 . 1 .
 H95_13 H 0.199964 0.627878 0.168745 0.15162 Uiso 1 . 1 .
 C96_13 C 0.185741 0.503745 0.218514 0.046451 Uani 1 . 1 .
 H96_13 H 0.165506 0.534611 0.240618 0.06509 Uiso 1 . 1 .
 C52_13 C 0.155354 0.300211 0.166323 0.020257 Uani 1 . 1 .
 O24_13 O 0.14972 0.32566 0.116505 0.023737 Uani 1 . 1 .
 N23_14 N 0.169678 0.235633 0.17467 0.021237 Uani 1 . 1 .
 H23_14 H 0.172588 0.218017 0.211862 0.01172 Uiso 1 . 1 .
 C51_14 C 0.179976 0.194727 0.12249 0.020718 Uani 1 . 1 .
 H51_14 H 0.193744 0.226808 0.098095 0.0207 Uiso 1 . 1 .
 C97_14 C 0.201158 0.130376 0.141443 0.02535 Uani 1 . 1 .
 H97A_14 H 0.191638 0.104798 0.174253 0.01695 Uiso 1 . 1 .
 H97B_14 H 0.204109 0.096957 0.107803 0.03865 Uiso 1 . 1 .
 C98_14 C 0.23493 0.155067 0.162954 0.030855 Uani 1 . 1 .
 O37_14 O 0.246851 0.212021 0.145063 0.042158 Uani 1 . 1 .
 N37_14 N 0.250273 0.109649 0.200487 0.042768 Uani 1 . 1 .
 H37A_14 H 0.276665 0.1255 0.218219 0.05431 Uiso 1 . 1 .
 H37B_14 H 0.24243 0.073736 0.214392 0.0576 Uiso 1 . 1 .
 C50_14 C 0.150491 0.170473 0.084349 0.02013 Uani 1 . 1 .
 O23_14 O 0.153153 0.168291 0.029389 0.027056 Uani 1 . 1 .
 N22_15 N 0.122858 0.152246 0.111929 0.01953 Uani 1 . 1 .
 H22_15 H 0.120913 0.152096 0.152963 0.0205 Uiso 1 . 1 .
 C49_15 C 0.093658 0.135976 0.075885 0.018668 Uani 1 . 1 .
 H49_15 H 0.099743 0.100425 0.04274 0.02358 Uiso 1 . 1 .
 C99_15 C 0.067053 0.099975 0.11385 0.022601 Uani 1 . 1 .
 H99_15 H 0.06357 0.126727 0.154348 0.02057 Uiso 1 . 1 .
 C100_15 C 0.034541 0.096705 0.079621 0.033744 Uani 1 . 1 .
 H10D_15 H 0.030257 0.147572 0.06438 0.02755 Uiso 1 . 1 .
 H10E_15 H 0.019266 0.079503 0.101418 0.03677 Uiso 1 . 1 .
 H10F_15 H 0.02911 0.091096 0.048633 0.11591 Uiso 1 . 1 .
 C101_15 C 0.078343 0.024283 0.131831 0.031959 Uani 1 . 1 .
 H10G_15 H 0.094509 0.029224 0.163598 0.03993 Uiso 1 . 1 .
 H10H_15 H 0.081593 -0.006335 0.095223 0.02535 Uiso 1 . 1 .
 H10I_15 H 0.062417 0.003664 0.153863 0.03899 Uiso 1 . 1 .
 C48_15 C 0.081516 0.20399 0.043502 0.01927 Uani 1 . 1 .
 O22_15 O 0.072622 0.201803 -0.009582 0.023009 Uani 1 . 1 .
 N21_16 N 0.08036 0.26556 0.076115 0.020595 Uani 1 . 1 .
 H21_16 H 0.08758 0.266851 0.114162 0.02753 Uiso 1 . 1 .
 C47_16 C 0.070151 0.333642 0.048438 0.019655 Uani 1 . 1 .
 H47_16 H 0.048821 0.328911 0.037977 0.01738 Uiso 1 . 1 .
 C102_16 C 0.073514 0.392468 0.096605 0.025435 Uani 1 . 1 .
 H10J_16 H 0.055331 0.377758 0.127199 0.03235 Uiso 1 . 1 .
 H10K_16 H 0.095356 0.388126 0.111718 0.03868 Uiso 1 . 1 .
 S5_16 S 0.063339 0.482502 0.071135 0.028144 Uani 1 . 1 .
 C46_16 C 0.09013 0.350947 -0.007345 0.019781 Uani 1 . 1 .
 O21_16 O 0.077313 0.380543 -0.051316 0.023552 Uani 1 . 1 .
 N20_17 N 0.121975 0.333193 -0.005871 0.019449 Uani 1 . 1 .
 H20_17 H 0.12865 0.313443 0.027413 0.01961 Uiso 1 . 1 .
 C45_17 C 0.143076 0.349962 -0.05579 0.019419 Uani 1 . 1 .
 H45_17 H 0.139624 0.40321 -0.069279 0.02188 Uiso 1 . 1 .
 C104_17 C 0.179102 0.346732 -0.035525 0.022401 Uani 1 . 1 .
 H10L_17 H 0.183633 0.305426 -0.015146 0.02602 Uiso 1 . 1 .
 H10M_17 H 0.191696 0.341191 -0.069548 0.03413 Uiso 1 . 1 .
 C105_17 C 0.188228 0.409802 0.005883 0.024655 Uani 1 . 1 .
 H10N_17 H 0.170191 0.417332 0.031311 0.03316 Uiso 1 . 1 .
 H10O_17 H 0.205749 0.401682 0.030129 0.0487 Uiso 1 . 1 .
 C106_17 C 0.193516 0.480417 -0.027155 0.024961 Uani 1 . 1 .
 H10P_17 H 0.17531 0.489266 -0.055661 0.02255 Uiso 1 . 1 .
 H10Q_17 H 0.194339 0.514075 0.002288 0.0312 Uiso 1 . 1 .
 N38_17 N 0.223997 0.477647 -0.06087 0.028539 Uani 1 . 1 .
 H38_17 H 0.242462 0.443033 -0.048555 0.01986 Uiso 1 . 1 .
 C107_17 C 0.231449 0.519192 -0.107782 0.025363 Uani 1 . 1 .
 N39_17 N 0.209563 0.562722 -0.132717 0.032699 Uani 1 . 1 .
 H39A_17 H 0.187086 0.563105 -0.118466 0.02507 Uiso 1 . 1 .
 H39B_17 H 0.21575 0.586155 -0.170168 0.0256 Uiso 1 . 1 .
 N40_17 N 0.261843 0.517054 -0.12869 0.033627 Uani 1 . 1 .
 H40A_17 H 0.276382 0.492088 -0.109311 0.01874 Uiso 1 . 1 .
 H40B_17 H 0.269045 0.544699 -0.161626 0.02647 Uiso 1 . 1 .
 C44_17 C 0.137687 0.30002 -0.109681 0.021238 Uani 1 . 1 .
 O20_17 O 0.147052 0.320818 -0.159325 0.027705 Uani 1 . 1 .
 N19_18 N 0.12334 0.235705 -0.101633 0.021763 Uani 1 . 1 .
 H19_18 H 0.115634 0.227881 -0.067 0.01637 Uiso 1 . 1 .
 C43_18 C 0.120643 0.18519 -0.15135 0.021509 Uani 1 . 1 .
 H43_18 H 0.143139 0.176167 -0.163721 0.02636 Uiso 1 . 1 .
 C108_18 C 0.102267 0.115617 -0.13341 0.026804 Uani 1 . 1 .
 H10R_18 H 0.080283 0.121995 -0.125583 0.06557 Uiso 1 . 1 .
 H10S_18 H 0.097968 0.089397 -0.168922 0.03286 Uiso 1 . 1 .
 C109_18 C 0.120587 0.065344 -0.090098 0.028444 Uani 1 . 1 .
 H109_18 H 0.12501 0.092195 -0.055503 0.03046 Uiso 1 . 1 .
 C111_18 C 0.09779 0.005457 -0.071069 0.044473 Uani 1 . 1 .
 H11A_18 H 0.081627 0.030236 -0.063775 0.04211 Uiso 1 . 1 .
 H11B_18 H 0.108987 -0.026238 -0.035409 0.03696 Uiso 1 . 1 .
 H11C_18 H 0.087942 -0.033113 -0.104271 0.07534 Uiso 1 . 1 .
 C110_18 C 0.151491 0.034374 -0.117497 0.044503 Uani 1 . 1 .
 H11D_18 H 0.159911 0.076901 -0.133655 0.04978 Uiso 1 . 1 .
 H11E_18 H 0.146308 -0.006937 -0.145078 0.07351 Uiso 1 . 1 .
 H11F_18 H 0.16248 0.006934 -0.088864 0.05771 Uiso 1 . 1 .
 C42_18 C 0.105119 0.216844 -0.207206 0.019338 Uani 1 . 1 .
 O19_18 O 0.117693 0.204643 -0.256766 0.02353 Uani 1 . 1 .
 N18_19 N 0.077673 0.257009 -0.204425 0.020984 Uani 1 . 1 .
 C112_19 C 0.054039 0.262225 -0.153976 0.029403 Uani 1 . 1 .
 H11G_19 H 0.067363 0.275929 -0.115773 0.04136 Uiso 1 . 1 .
 H11H_19 H 0.046148 0.216158 -0.145864 0.06265 Uiso 1 . 1 .
 C113_19 C 0.030457 0.319951 -0.174147 0.0337 Uani 1 . 1 .
 H11I_19 H 0.037917 0.36229 -0.160798 0.03439 Uiso 1 . 1 .
 H11J_19 H 0.010844 0.318822 -0.162108 0.04952 Uiso 1 . 1 .
 C114_19 C 0.029015 0.310659 -0.242298 0.02797 Uani 1 . 1 .
 H11K_19 H 0.021832 0.350131 -0.264105 0.03949 Uiso 1 . 1 .
 H11L_19 H 0.01121 0.270401 -0.250169 0.02905 Uiso 1 . 1 .
 C41_19 C 0.064098 0.288176 -0.259451 0.022289 Uani 1 . 1 .
 H41_19 H 0.061971 0.253342 -0.292948 0.02325 Uiso 1 . 1 .
 C40_19 C 0.082816 0.354211 -0.281906 0.026293 Uani 1 . 1 .
 O18_19 O 0.074036 0.38272 -0.329347 0.047207 Uani 1 . 1 .
 N17_20 N 0.107276 0.379664 -0.248484 0.024173 Uani 1 . 1 .
 H17_20 H 0.113996 0.360336 -0.217851 0.02685 Uiso 1 . 1 .
 C39_20 C 0.126917 0.441247 -0.266448 0.030321 Uani 1 . 1 .
 H39C_20 H 0.145841 0.43305 -0.262626 0.02284 Uiso 1 . 1 .
 H39D_20 H 0.122033 0.445827 -0.30178 0.04226 Uiso 1 . 1 .
 C38_20 C 0.118986 0.511827 -0.234555 0.024905 Uani 1 . 1 .
 O17_20 O 0.132277 0.567753 -0.251601 0.037448 Uani 1 . 1 .
 N16_21 N 0.098709 0.508267 -0.18863 0.021425 Uani 1 . 1 .
 H16_21 H 0.08996 0.459432 -0.180865 0.03562 Uiso 1 . 1 .
 C37_21 C 0.089084 0.571523 -0.154438 0.018882 Uani 1 . 1 .
 H37_21 H 0.07497 0.603623 -0.182996 0.01341 Uiso 1 . 1 .
 C115_21 C 0.07151 0.546712 -0.097435 0.019267 Uani 1 . 1 .
 H115_21 H 0.087148 0.525558 -0.068945 0.01441 Uiso 1 . 1 .
 C116_21 C 0.055587 0.609382 -0.065471 0.026868 Uani 1 . 1 .
 H11M_21 H 0.06928 0.65748 -0.077011 0.04291 Uiso 1 . 1 .
 H11N_21 H 0.054227 0.600295 -0.01918 0.04143 Uiso 1 . 1 .
 O38_21 O 0.047504 0.493048 -0.113738 0.023915 Uani 1 . 1 .
 H38A_21 H 0.050541 0.453606 -0.089439 0.02454 Uiso 1 . 1 .
 C36_21 C 0.119787 0.613123 -0.134407 0.019757 Uani 1 . 1 .
 O16_21 O 0.142655 0.580269 -0.110023 0.028739 Uani 1 . 1 .
 N15_22 N 0.119594 0.684967 -0.139132 0.023597 Uani 1 . 1 .
 C117_22 C 0.095834 0.72992 -0.177383 0.049893 Uani 1 . 1 .
 H11O_22 H 0.068009 0.776536 -0.155308 0.00807 Uiso 1 . 1 .
 H11P_22 H 0.087385 0.69869 -0.222436 0.04871 Uiso 1 . 1 .
 C118_22 C 0.113439 0.803013 -0.183329 0.058171 Uani 1 . 1 .
 H11Q_22 H 0.094739 0.84221 -0.191763 0.06711 Uiso 1 . 1 .
 H11R_22 H 0.130068 0.799054 -0.218528 0.0854 Uiso 1 . 1 .
 C119_22 C 0.136301 0.80678 -0.123257 0.044812 Uani 1 . 1 .
 H11S_22 H 0.154781 0.83907 -0.128459 0.11331 Uiso 1 R 1 .
 H11T_22 H 0.123825 0.821915 -0.088729 0.0365 Uiso 1 R 1 .
 C35_22 C 0.147356 0.727712 -0.117813 0.026288 Uani 1 . 1 .
 H35C_22 H 0.164204 0.723429 -0.140965 0.05044 Uiso 1 . 1 .
 C34_22 C 0.155961 0.710533 -0.05257 0.025754 Uani 1 . 1 .
 O15_22 O 0.134217 0.701482 -0.015367 0.035624 Uani 1 . 1 .
 N14_23 N 0.188122 0.712907 -0.038306 0.024512 Uani 1 . 1 .
 H14_23 H 0.205284 0.726977 -0.070213 0.03192 Uiso 1 . 1 .
 C33_23 C 0.198493 0.703541 0.023195 0.022709 Uani 1 . 1 .
 H33A_23 H 0.188399 0.655585 0.037034 0.03426 Uiso 1 . 1 .
 C120_23 C 0.235787 0.711845 0.030177 0.02787 Uani 1 . 1 .
 H12A_23 H 0.244473 0.760911 0.001671 0.05898 Uiso 1 . 1 .
 H12B_23 H 0.242032 0.714518 0.07599 0.04706 Uiso 1 . 1 .
 C121_23 C 0.255859 0.651119 0.001338 0.033665 Uani 1 . 1 .
 H12C_23 H 0.243794 0.603262 0.017804 0.04616 Uiso 1 . 1 .
 H12D_23 H 0.254199 0.656472 -0.038928 0.03684 Uiso 1 . 1 .
 C122_23 C 0.292056 0.653498 0.015467 0.050657 Uani 1 . 1 .
 O39_23 O 0.304578 0.713869 0.032707 0.073821 Uani 1 . 1 .
 O40_23 O 0.307741 0.596391 0.007685 0.07992 Uani 1 . 1 .
 C32_23 C 0.181546 0.755071 0.065424 0.02076 Uani 1 . 1 .
 O14_23 O 0.173493 0.734188 0.115908 0.025831 Uani 1 . 1 .
 N13_24 N 0.176352 0.822954 0.046951 0.021352 Uani 1 . 1 .
 H13_24 H 0.183324 0.845187 0.009899 0.04991 Uiso 1 . 1 .
 C31_24 C 0.162479 0.875886 0.087946 0.021054 Uani 1 . 1 .
 H31A_24 H 0.17706 0.879622 0.126187 0.02671 Uiso 1 . 1 .
 C123_24 C 0.163385 0.951657 0.061044 0.030221 Uani 1 . 1 .
 H12E_24 H 0.185094 0.97211 0.059899 0.04184 Uiso 1 . 1 .
 H12F_24 H 0.149682 0.982937 0.07827 0.05564 Uiso 1 . 1 .
 H12G_24 H 0.160409 0.951343 0.015117 0.03588 Uiso 1 . 1 .
 C30_24 C 0.127757 0.855213 0.106493 0.020139 Uani 1 . 1 .
 O13_24 O 0.118288 0.866777 0.157804 0.024275 Uani 1 . 1 .
 N12_25 N 0.107945 0.8267 0.064351 0.021059 Uani 1 . 1 .
 H12H_25 H 0.115961 0.808227 0.027494 0.0364 Uiso 1 . 1 .
 C29_25 C 0.075015 0.801457 0.079922 0.019543 Uani 1 . 1 .
 H29A_25 H 0.066716 0.835823 0.101917 0.01395 Uiso 1 . 1 .
 C124_25 C 0.054217 0.789577 0.023089 0.023451 Uani 1 . 1 .
 H12I_25 H 0.06702 0.763151 -0.00599 0.01961 Uiso 1 R 1 .
 H12J_25 H 0.035232 0.760488 0.032867 0.0777 Uiso 1 R 1 .
 C125_25 C 0.042766 0.861398 -0.004575 0.031331 Uani 1 . 1 .
 H125_25 H 0.05995 0.891194 -0.00873 0.03045 Uiso 1 . 1 .
 C126_25 C 0.029964 0.851887 -0.067575 0.063936 Uani 1 . 1 .
 H12K_25 H 0.012813 0.914857 -0.09143 0.11336 Uiso 1 . 1 .
 H12L_25 H 0.011799 0.812222 -0.052882 0.08014 Uiso 1 . 1 .
 H12M_25 H 0.048311 0.877785 -0.101974 0.08908 Uiso 1 . 1 .
 C127_25 C 0.016087 0.898507 0.033882 0.043913 Uani 1 . 1 .
 H12N_25 H 0.003193 0.941716 -0.006792 0.07193 Uiso 1 . 1 .
 H12O_25 H 0.026292 0.901165 0.059619 0.06323 Uiso 1 . 1 .
 H12P_25 H -0.003679 0.864375 0.055983 0.06101 Uiso 1 . 1 .
 C28_25 C 0.076438 0.733087 0.11763 0.019875 Uani 1 . 1 .
 O12_25 O 0.057657 0.724321 0.160053 0.025873 Uani 1 . 1 .
 N11_26 N 0.098872 0.682498 0.102541 0.019852 Uani 1 . 1 .
 H11_26 H 0.111332 0.68843 0.069701 0.02511 Uiso 1 . 1 .
 C27_26 C 0.101813 0.619794 0.141083 0.020268 Uani 1 . 1 .
 H27A_26 H 0.079578 0.601636 0.149856 0.04478 Uiso 1 . 1 .
 C103_26 C 0.124041 0.561969 0.113688 0.022584 Uani 1 . 1 .
 H10T_26 H 0.145894 0.584491 0.101399 0.02296 Uiso 1 . 1 .
 H10U_26 H 0.128027 0.525687 0.137531 0.02256 Uiso 1 . 1 .
 S6_26 S 0.107099 0.523867 0.044785 0.02605 Uani 1 . 1 .
 C26_26 C 0.113757 0.639302 0.204199 0.020657 Uani 1 . 1 .
 O11_26 O 0.104998 0.60187 0.247059 0.025996 Uani 1 . 1 .
 N10_27 N 0.133074 0.696823 0.209688 0.02105 Uani 1 . 1 .
 H10_27 H 0.137759 0.721065 0.173571 0.02891 Uiso 1 . 1 .
 C25_27 C 0.144389 0.722286 0.268757 0.020005 Uani 1 . 1 .
 H25A_27 H 0.155592 0.683262 0.287897 0.00902 Uiso 1 . 1 .
 C128_27 C 0.169854 0.781408 0.260209 0.025772 Uani 1 . 1 .
 H12Q_27 H 0.189764 0.767094 0.243141 0.0347 Uiso 1 . 1 .
 H12R_27 H 0.174031 0.807074 0.291265 0.01744 Uiso 1 . 1 .
 H12S_27 H 0.164026 0.811866 0.232794 0.02442 Uiso 1 . 1 .
 C24_27 C 0.115371 0.747881 0.306391 0.020864 Uani 1 . 1 .
 O10_27 O 0.111003 0.722587 0.356631 0.026136 Uani 1 . 1 .
 N9_28 N 0.095243 0.797935 0.28259 0.023688 Uani 1 . 1 .
 H9A_28 H 0.099746 0.816268 0.246533 0.06524 Uiso 1 . 1 .
 C23_28 C 0.067682 0.821916 0.319357 0.026162 Uani 1 . 1 .
 H23A_28 H 0.075525 0.833306 0.359673 0.03631 Uiso 1 . 1 .
 C129_28 C 0.050799 0.888654 0.292938 0.025887 Uani 1 . 1 .
 H129_28 H 0.031506 0.888597 0.319678 0.05994 Uiso 1 . 1 .
 C130_28 C 0.072275 0.956006 0.29709 0.036124 Uani 1 . 1 .
 H13C_28 H 0.057924 1.003018 0.279009 0.05301 Uiso 1 . 1 .
 H13D_28 H 0.087931 0.939823 0.270155 0.02145 Uiso 1 . 1 .
 H13E_28 H 0.081562 0.964276 0.334293 0.06015 Uiso 1 . 1 .
 O41_28 O 0.04262 0.872399 0.232415 0.027362 Uani 1 . 1 .
 H41A_28 H 0.02864 0.910325 0.224714 0.06948 Uiso 1 . 1 .
 C22_28 C 0.043301 0.760535 0.329501 0.026764 Uani 1 . 1 .
 O9_28 O 0.025984 0.76042 0.375251 0.047003 Uani 1 . 1 .
 N8_29 N 0.040876 0.709471 0.28882 0.023383 Uani 1 . 1 .
 H8_29 H 0.049802 0.716982 0.253393 0.03079 Uiso 1 . 1 .
 C21_29 C 0.018255 0.649069 0.296505 0.026234 Uani 1 . 1 .
 H21A_29 H -0.002974 0.659446 0.304621 0.04729 Uiso 1 . 1 .
 C131_29 C 0.01512 0.610643 0.237896 0.036447 Uani 1 . 1 .
 H13F_29 H 0.003851 0.639163 0.202047 0.05083 Uiso 1 . 1 .
 H13G_29 H 0.038432 0.59498 0.220458 0.03566 Uiso 1 . 1 .
 C132_29 C -0.004058 0.540061 0.237418 0.097328 Uani 1 . 1 .
 C133_29 C -0.032368 0.519809 0.244647 0.072136 Uani 1 . 1 .
 H133_29 H -0.048712 0.52213 0.215506 0.01641 Uiso 1 R 1 .
 C134_29 C -0.04617 0.450638 0.246168 0.111719 Uani 1 . 1 .
 H134_29 H -0.065857 0.441533 0.226355 0.08791 Uiso 1 R 1 .
 C135_29 C -0.020284 0.388349 0.234396 0.076003 Uani 1 . 1 .
 O42_29 O -0.035558 0.323296 0.236418 0.152192 Uani 1 . 1 .
 H42_29 H -0.007471 0.273642 0.158403 0.10955 Uiso 1 . 1 .
 C136_29 C 0.011393 0.401918 0.222052 0.088767 Uani 1 . 1 .
 H136_29 H 0.027658 0.340411 0.204797 0.07518 Uiso 1 . 1 .
 C137_29 C 0.02351 0.472316 0.220524 0.074442 Uani 1 . 1 .
 H137_29 H 0.052681 0.485473 0.213663 0.07393 Uiso 1 . 1 .
 C20_29 C 0.028529 0.59928 0.348058 0.025799 Uani 1 . 1 .
 O8_29 O 0.007449 0.570516 0.379869 0.046675 Uani 1 . 1 .
 N7_30 N 0.060669 0.589655 0.356352 0.023865 Uani 1 . 1 .
 H7A_30 H 0.075013 0.623304 0.335527 0.02583 Uiso 1 . 1 .
 C19_30 C 0.073555 0.534093 0.396399 0.030987 Uani 1 . 1 .
 H19A_30 H 0.0566 0.505243 0.403713 0.02256 Uiso 1 . 1 .
 C138_30 C 0.100444 0.489984 0.366991 0.038204 Uani 1 . 1 .
 H138_30 H 0.109381 0.460082 0.398072 0.04117 Uiso 1 . 1 .
 C139_30 C 0.087884 0.447908 0.312997 0.061004 Uani 1 . 1 .
 H13H_30 H 0.103353 0.422942 0.298685 0.06113 Uiso 1 . 1 .
 H13I_30 H 0.080829 0.486096 0.282346 0.05441 Uiso 1 . 1 .
 H13J_30 H 0.059823 0.412609 0.322281 0.09561 Uiso 1 . 1 .
 O43_30 O 0.127188 0.535481 0.3503 0.033769 Uani 1 . 1 .
 H43A_30 H 0.115168 0.565984 0.324909 0.07161 Uiso 1 . 1 .
 C18_30 C 0.088492 0.563339 0.455097 0.037032 Uani 1 . 1 .
 O7_30 O 0.093107 0.518412 0.496385 0.051719 Uani 1 . 1 .
 N6_31 N 0.098148 0.631568 0.455971 0.0322 Uani 1 . 1 .
 H6A_31 H 0.092144 0.658301 0.423268 0.02696 Uiso 1 . 1 .
 C17_31 C 0.118292 0.659963 0.504152 0.039153 Uani 1 . 1 .
 H17A_31 H 0.121895 0.706585 0.488547 0.08227 Uiso 1 . 1 .
 H17B_31 H 0.112587 0.636301 0.537363 0.05842 Uiso 1 . 1 .
 C16_31 C 0.154731 0.656727 0.493565 0.027295 Uani 1 . 1 .
 O6_31 O 0.173778 0.684224 0.530222 0.031815 Uani 1 . 1 .
 N5_32 N 0.16537 0.622076 0.445014 0.025944 Uani 1 . 1 .
 H5_32 H 0.148169 0.604535 0.42103 0.05365 Uiso 1 . 1 .
 C15_32 C 0.199565 0.626862 0.427744 0.022233 Uani 1 . 1 .
 H15_32 H 0.214651 0.61002 0.464713 0.01591 Uiso 1 . 1 .
 C14_32 C 0.207031 0.574287 0.376945 0.025221 Uani 1 . 1 .
 H14A_32 H 0.192181 0.585487 0.347164 0.02713 Uiso 1 . 1 .
 H14B_32 H 0.230927 0.576707 0.3619 0.0188 Uiso 1 . 1 .
 S4_32 S 0.198064 0.479038 0.394354 0.026157 Uani 1 . 1 .
 C140_32 C 0.207036 0.705485 0.408325 0.025036 Uani 1 . 1 .
 O44_32 O 0.185071 0.748798 0.39887 0.032846 Uani 1 . 1 .
 N41_33 N 0.238977 0.719597 0.401563 0.029641 Uani 1 . 1 .
 H41B_33 H 0.25386 0.680258 0.407378 0.03607 Uiso 1 . 1 .
 C141_33 C 0.250984 0.791424 0.387343 0.028052 Uani 1 . 1 .
 H141_33 H 0.23504 0.816298 0.369545 0.02129 Uiso 1 . 1 .
 C199_33 C 0.264762 0.830004 0.442664 0.036011 Uani 1 . 1 .
 H199_33 H 0.271286 0.880881 0.430716 0.00931 Uiso 1 . 1 .
 C202_33 C 0.238059 0.835902 0.490491 0.044403 Uani 1 . 1 .
 H20A_33 H 0.215615 0.862587 0.471309 0.09011 Uiso 1 . 1 .
 H20B_33 H 0.247756 0.862422 0.529028 0.02969 Uiso 1 . 1 .
 H20C_33 H 0.21234 0.796735 0.548617 0.08862 Uiso 1 . 1 .
 C200_33 C 0.295983 0.792835 0.468476 0.037686 Uani 1 . 1 .
 H20D_33 H 0.286783 0.739217 0.482439 0.03585 Uiso 1 . 1 .
 H20E_33 H 0.309483 0.778058 0.43357 0.02635 Uiso 1 . 1 .
 C201_33 C 0.313563 0.833467 0.518017 0.05476 Uani 1 . 1 .
 H20F_33 H 0.338894 0.805618 0.525347 0.06159 Uiso 1 . 1 .
 H20G_33 H 0.297916 0.827949 0.5391 0.12368 Uiso 1 . 1 .
 H20H_33 H 0.315002 0.877874 0.502984 0.06172 Uiso 1 . 1 .
 C142_33 C 0.276611 0.785786 0.338438 0.029298 Uani 1 . 1 .
 O45_33 O 0.291828 0.729448 0.328595 0.03537 Uani 1 . 1 .
 N42_34 N 0.281621 0.847097 0.308765 0.033706 Uani 1 . 1 .
 H42A_34 H 0.268735 0.889518 0.323163 0.0214 Uiso 1 . 1 .
 C143_34 C 0.307735 0.855703 0.263694 0.034002 Uani 1 . 1 .
 H143_34 H 0.32121 0.811405 0.260915 0.0343 Uiso 1 . 1 .
 C195_34 C 0.294851 0.88583 0.204037 0.044508 Uani 1 . 1 .
 H195_34 H 0.285119 0.931179 0.200566 0.05608 Uiso 1 . 1 .
 C198_34 C 0.32353 0.895156 0.159462 0.077799 Uani 1 . 1 .
 H19B_34 H 0.339654 0.949496 0.18522 0.039 Uiso 1 . 1 .
 H19C_34 H 0.308658 0.913677 0.127464 0.10174 Uiso 1 . 1 .
 H19D_34 H 0.337842 0.863223 0.166519 0.06379 Uiso 1 . 1 .
 C196_34 C 0.267167 0.836471 0.180044 0.063791 Uani 1 . 1 .
 H19E_34 H 0.284341 0.790615 0.191027 0.0886 Uiso 1 . 1 .
 H19F_34 H 0.251144 0.825558 0.209397 0.04595 Uiso 1 . 1 .
 C197_34 C 0.250878 0.870257 0.127 0.086617 Uani 1 . 1 .
 H19G_34 H 0.244472 0.837946 0.106844 0.08138 Uiso 1 . 1 .
 H19H_34 H 0.270875 0.871711 0.080906 0.12034 Uiso 1 . 1 .
 H19I_34 H 0.235053 0.920144 0.121985 0.09142 Uiso 1 . 1 .
 C144_34 C 0.332061 0.909931 0.290032 0.032147 Uani 1 . 1 .
 O46_34 O 0.32245 0.96922 0.309007 0.048095 Uani 1 . 1 .
 N43_35 N 0.363517 0.890391 0.288855 0.037267 Uani 1 . 1 .
 H43B_35 H 0.367238 0.848148 0.268659 0.04756 Uiso 1 . 1 .
 C145_35 C 0.389713 0.939969 0.308591 0.043222 Uani 1 . 1 .
 H145_35 H 0.379056 0.981666 0.319744 0.05074 Uiso 1 . 1 .
 C191_35 C 0.407286 0.912212 0.364844 0.053267 Uani 1 . 1 .
 H191_35 H 0.42308 0.938184 0.382716 0.1099 Uiso 1 . 1 .
 C194_35 C 0.38208 0.915608 0.415884 0.08463 Uani 1 . 1 .
 H19J_35 H 0.366512 0.968501 0.414136 0.12646 Uiso 1 . 1 .
 H19K_35 H 0.407398 0.881149 0.470539 0.11525 Uiso 1 . 1 .
 H19L_35 H 0.363878 0.865548 0.409838 0.06431 Uiso 1 . 1 .
 C192_35 C 0.423514 0.840074 0.356411 0.061839 Uani 1 . 1 .
 H19M_35 H 0.404832 0.800387 0.348414 0.04426 Uiso 1 . 1 .
 H19N_35 H 0.436841 0.84054 0.323772 0.05341 Uiso 1 . 1 .
 C193_35 C 0.445801 0.820424 0.411044 0.100146 Uani 1 . 1 .
 H19O_35 H 0.445426 0.728022 0.433708 0.07558 Uiso 1 . 1 .
 H19P_35 H 0.433176 0.822168 0.431452 0.10902 Uiso 1 . 1 .
 H19Q_35 H 0.466568 0.864903 0.419929 0.05603 Uiso 1 . 1 .
 C146_35 C 0.414042 0.946152 0.256326 0.038855 Uani 1 . 1 .
 O47_35 O 0.417853 0.899225 0.220577 0.048186 Uani 1 . 1 .
 N44_36 N 0.432292 1.007396 0.256052 0.046681 Uani 1 . 1 .
 C190_36 C 0.425276 1.07386 0.290076 0.060112 Uani 1 . 1 .
 H19R_36 H 0.427692 1.067981 0.328584 0.04203 Uiso 1 . 1 .
 H19S_36 H 0.398917 1.096636 0.287568 0.04969 Uiso 1 . 1 .
 C189_36 C 0.451474 1.126901 0.270188 0.07082 Uani 1 . 1 .
 H18A_36 H 0.473352 1.121778 0.2991 0.03297 Uiso 1 . 1 .
 H18B_36 H 0.445842 1.173582 0.276882 0.07356 Uiso 1 . 1 .
 C188_36 C 0.460022 1.102026 0.207414 0.08284 Uani 1 . 1 .
 H18C_36 H 0.472697 1.103319 0.231953 0.03025 Uiso 1 . 1 .
 H18D_36 H 0.436552 1.103876 0.181418 0.11136 Uiso 1 . 1 .
 C147_36 C 0.456107 1.019639 0.209561 0.05054 Uani 1 . 1 .
 H147_36 H 0.444475 1.005939 0.168817 0.07563 Uiso 1 . 1 .
 C148_36 C 0.48752 0.980134 0.220847 0.056132 Uani 1 . 1 .
 O48_36 O 0.506096 0.96462 0.179186 0.0732 Uani 1 . 1 .
 N45_37 N 0.495422 0.962529 0.27694 0.05509 Uani 1 . 1 .
 H45A_37 H 0.482221 1.087342 0.357773 0.13921 Uiso 1 . 1 .
 C149_37 C 0.524101 0.921388 0.292282 0.076604 Uani 1 . 1 .
 H14C_37 H 0.54645 0.92237 0.262945 0.12428 Uiso 1 . 1 .
 H14D_37 H 0.527742 0.934923 0.342621 0.05202 Uiso 1 . 1 .
 C150_37 C 0.517698 0.84039 0.287359 0.061022 Uani 1 . 1 .
 O49_37 O 0.493307 0.81689 0.261558 0.088418 Uani 1 . 1 .
 N46_38 N 0.540527 0.797346 0.310856 0.057633 Uani 1 . 1 .
 H46_38 H 0.557595 0.812822 0.3404 0.06707 Uiso 1 . 1 .
 C151_38 C 0.540532 0.717472 0.303689 0.067293 Uani 1 . 1 .
 H151_38 H 0.519684 0.690586 0.283172 0.1473 Uiso 1 . 1 .
 C187_38 C 0.569563 0.693211 0.272364 0.085727 Uani 1 . 1 .
 H18E_38 H 0.562727 0.713081 0.205377 0.08208 Uiso 1 . 1 .
 H18F_38 H 0.580555 0.638325 0.280603 0.07042 Uiso 1 . 1 .
 H18G_38 H 0.578609 0.703395 0.283408 0.06289 Uiso 1 . 1 .
 C152_38 C 0.536489 0.681102 0.366312 0.069911 Uani 1 . 1 .
 O50_38 O 0.535529 0.613823 0.363662 0.101078 Uani 1 . 1 .
 N47_39 N 0.535545 0.722588 0.415976 0.056157 Uani 1 . 1 .
 H47A_39 H 0.540196 0.766906 0.408506 0.07121 Uiso 1 . 1 .
 C153_39 C 0.537347 0.691671 0.473509 0.084846 Uani 1 . 1 .
 H153_39 H 0.540598 0.645941 0.482819 0.11663 Uiso 1 . 1 .
 C185_39 C 0.566516 0.726378 0.509197 0.099413 Uani 1 . 1 .
 H185_39 H 0.56183 0.777775 0.51543 0.11577 Uiso 1 R 1 .
 C186_39 C 0.572712 0.690692 0.57018 0.101162 Uani 1 . 1 .
 H18H_39 H 0.587585 0.698336 0.596231 0.06904 Uiso 1 . 1 .
 H18I_39 H 0.576941 0.641631 0.549035 0.01455 Uiso 1 . 1 .
 H18J_39 H 0.55261 0.700446 0.576979 0.15864 Uiso 1 . 1 .
 O64_39 O 0.595377 0.719989 0.473972 0.093624 Uani 1 . 1 .
 H64_39 H 0.590461 0.752675 0.433578 0.05675 Uiso 1 . 1 .
 C154_39 C 0.50492 0.705805 0.507612 0.057288 Uani 1 . 1 .
 O51_39 O 0.49818 0.763545 0.522818 0.096312 Uani 1 . 1 .
 N48_40 N 0.486085 0.64659 0.512432 0.052319 Uani 1 . 1 .
 H48_40 H 0.49566 0.601419 0.494967 0.0743 Uiso 1 . 1 .
 C155_40 C 0.454534 0.655689 0.542973 0.047302 Uani 1 . 1 .
 H155_40 H 0.442037 0.694229 0.527355 0.04118 Uiso 1 . 1 .
 C156_40 C 0.433177 0.590997 0.528677 0.047519 Uani 1 . 1 .
 H15A_40 H 0.446679 0.549691 0.542285 0.04865 Uiso 1 . 1 .
 H15B_40 H 0.413526 0.592969 0.553079 0.065 Uiso 1 . 1 .
 S1_40 S 0.421487 0.583681 0.449951 0.051385 Uani 1 . 1 .
 C157_40 C 0.459519 0.659303 0.61187 0.053812 Uani 1 . 1 .
 O52_40 O 0.481048 0.623135 0.634863 0.064596 Uani 1 . 1 .
 N49_41 N 0.440029 0.70339 0.639507 0.054471 Uani 1 . 1 .
 C184_41 C 0.41413 0.749022 0.614248 0.070058 Uani 1 . 1 .
 H18K_41 H 0.395098 0.71541 0.591664 0.04973 Uiso 1 . 1 .
 H18L_41 H 0.424349 0.788327 0.589253 0.07883 Uiso 1 . 1 .
 C183_41 C 0.39689 0.780392 0.672622 0.091314 Uani 1 . 1 .
 H18M_41 H 0.384781 0.736172 0.662954 0.12651 Uiso 1 . 1 .
 H18N_41 H 0.389586 0.838998 0.64367 0.09846 Uiso 1 . 1 .
 C182_41 C 0.425081 0.781201 0.716685 0.081471 Uani 1 . 1 .
 H18O_41 H 0.420169 0.790416 0.75275 0.07276 Uiso 1 . 1 .
 H18P_41 H 0.437292 0.815188 0.713423 0.03558 Uiso 1 . 1 .
 C158_41 C 0.442992 0.71122 0.707242 0.060829 Uani 1 . 1 .
 H158_41 H 0.468104 0.722217 0.717028 0.07704 Uiso 1 . 1 .
 C159_41 C 0.428077 0.647316 0.738685 0.051037 Uani 1 . 1 .
 O53_41 O 0.410455 0.601754 0.713815 0.052675 Uani 1 . 1 .
 N50_42 N 0.435653 0.645995 0.797378 0.062688 Uani 1 . 1 .
 H50_42 H 0.447378 0.692779 0.820947 0.10538 Uiso 1 . 1 .
 C160_42 C 0.426213 0.58223 0.833846 0.067544 Uani 1 . 1 .
 H16A_42 H 0.43442 0.538127 0.826143 0.06918 Uiso 1 . 1 .
 H16B_42 H 0.436536 0.583324 0.870509 0.06175 Uiso 1 . 1 .
 C161_42 C 0.389059 0.571043 0.842715 0.052617 Uani 1 . 1 .
 O54_42 O 0.380042 0.512729 0.857948 0.067638 Uani 1 . 1 .
 N51_43 N 0.369409 0.628339 0.832504 0.039075 Uani 1 . 1 .
 H51A_43 H 0.376436 0.669654 0.826899 0.04007 Uiso 1 . 1 .
 C162_43 C 0.334191 0.621872 0.835253 0.039572 Uani 1 . 1 .
 H162_43 H 0.329911 0.576286 0.859428 0.03188 Uiso 1 . 1 .
 C180_43 C 0.317708 0.683853 0.867801 0.046413 Uani 1 . 1 .
 H18Q_43 H 0.290413 0.679911 0.859006 0.09351 Uiso 1 . 1 .
 H18R_43 H 0.325399 0.68529 0.90861 0.0295 Uiso 1 . 1 .
 C181_43 C 0.324006 0.756205 0.843191 0.04245 Uani 1 . 1 .
 O62_43 O 0.348942 0.765664 0.806202 0.064585 Uani 1 . 1 .
 O63_43 O 0.305277 0.807861 0.858119 0.061367 Uani 1 . 1 .
 C163_43 C 0.317968 0.609018 0.773337 0.030135 Uani 1 . 1 .
 O55_43 O 0.288509 0.600864 0.769666 0.036938 Uani 1 . 1 .
 N52_44 N 0.338655 0.604609 0.725921 0.028885 Uani 1 . 1 .
 H52_44 H 0.359265 0.616136 0.733281 0.03324 Uiso 1 . 1 .
 C164_44 C 0.327966 0.580523 0.668088 0.025547 Uani 1 . 1 .
 H164_44 H 0.306882 0.554777 0.677451 0.02347 Uiso 1 . 1 .
 C173_44 C 0.324145 0.642585 0.622789 0.031094 Uani 1 . 1 .
 H17C_44 H 0.343006 0.667851 0.620218 0.02991 Uiso 1 . 1 .
 H17D_44 H 0.319909 0.627288 0.585363 0.04765 Uiso 1 . 1 .
 C174_44 C 0.296152 0.69171 0.636777 0.027799 Uani 1 . 1 .
 C175_44 C 0.298885 0.747542 0.678824 0.033638 Uani 1 . 1 .
 H175_44 H 0.318044 0.744707 0.699498 0.02054 Uiso 1 . 1 .
 C176_44 C 0.272277 0.791293 0.691179 0.034785 Uani 1 . 1 .
 H176_44 H 0.277385 0.838075 0.722305 0.06029 Uiso 1 . 1 .
 C177_44 C 0.242142 0.779266 0.662353 0.030103 Uani 1 . 1 .
 O61_44 O 0.216282 0.822655 0.675569 0.037503 Uani 1 . 1 .
 H61A_44 H 0.197412 0.807313 0.651059 0.03611 Uiso 1 . 1 .
 C178_44 C 0.238876 0.72243 0.62105 0.030912 Uani 1 . 1 .
 H178_44 H 0.220415 0.717853 0.603407 0.04392 Uiso 1 . 1 .
 C179_44 C 0.266371 0.680877 0.607992 0.030107 Uani 1 . 1 .
 H179_44 H 0.262737 0.643904 0.580519 0.03905 Uiso 1 . 1 .
 C165_44 C 0.352308 0.523053 0.645884 0.027383 Uani 1 . 1 .
 O56_44 O 0.368527 0.531211 0.599987 0.034551 Uani 1 . 1 .
 N53_45 N 0.354348 0.465704 0.682406 0.029214 Uani 1 . 1 .
 H53A_45 H 0.341883 0.453308 0.707134 0.05998 Uiso 1 . 1 .
 C166_45 C 0.380676 0.413195 0.679395 0.033246 Uani 1 . 1 .
 H166_45 H 0.402666 0.444197 0.662118 0.05962 Uiso 1 . 1 .
 C172_45 C 0.386385 0.382055 0.740792 0.04442 Uani 1 . 1 .
 H17E_45 H 0.396273 0.412235 0.760197 0.04294 Uiso 1 . 1 .
 H17F_45 H 0.408261 0.332138 0.732896 0.13178 Uiso 1 . 1 .
 H17G_45 H 0.36486 0.364683 0.750974 0.07178 Uiso 1 . 1 .
 C167_45 C 0.374498 0.351771 0.634267 0.031094 Uani 1 . 1 .
 O57_45 O 0.396931 0.308348 0.624363 0.041831 Uani 1 . 1 .
 N54_46 N 0.344944 0.34775 0.610435 0.030595 Uani 1 . 1 .
 H54_46 H 0.327051 0.383641 0.623716 0.06682 Uiso 1 . 1 .
 C168_46 C 0.334127 0.28979 0.570798 0.032346 Uani 1 . 1 .
 C170_46 C 0.303965 0.252893 0.597753 0.040256 Uani 1 . 1 .
 H17H_46 H 0.287044 0.274874 0.591928 0.08185 Uiso 1 . 1 .
 H17I_46 H 0.297443 0.208592 0.568134 0.03236 Uiso 1 . 1 .
 C171_46 C 0.310673 0.225836 0.660898 0.056907 Uani 1 . 1 .
 O60_46 O 0.294722 0.25164 0.701661 0.109722 Uani 1 . 1 .
 N55_46 N 0.332782 0.175878 0.667513 0.077793 Uani 1 . 1 .
 H55A_46 H 0.337226 0.142625 0.708101 0.05953 Uiso 1 . 1 .
 H55B_46 H 0.339913 0.154017 0.618465 0.05883 Uiso 1 . 1 .
 C169_46 C 0.328595 0.3138 0.506448 0.034385 Uani 1 . 1 .
 O58_46 O 0.338379 0.373931 0.490566 0.038008 Uani 1 . 1 .
 O59_46 O 0.313534 0.269596 0.473787 0.043996 Uani 1 . 1 .
 H_46 H 0.040852 0.673415 -0.106055 0.09648 Uiso 1 . 1 .
 H168_46 H 0.352277 0.255851 0.570305 0.04796 Uiso 1 . 1 .

loop_
  _atom_site_aniso_label
  _atom_site_aniso_U_11
  _atom_site_aniso_U_22
  _atom_site_aniso_U_33
  _atom_site_aniso_U_23
  _atom_site_aniso_U_13
  _atom_site_aniso_U_12
 N3_1 0.04998 0.0696 0.07641 0.01446 0.00837 -0.00932
 C6_1 0.03821 0.05213 0.0552 0.00375 0.02026 -0.00815
 C7_1 0.03335 0.06149 0.06491 0.01416 0.00321 -0.01093
 C8_1 0.04155 0.08063 0.12618 0.00549 -0.00387 -0.00312
 O3_1 0.03568 0.1312 0.09436 0.01755 0.02216 -0.00638
 C5_1 0.03531 0.04163 0.04928 -0.00486 0.01091 -0.00293
 O2_1 0.05173 0.0512 0.10685 -0.02151 0.02625 -0.00254
 N2_2 0.03094 0.04718 0.02987 -0.00381 0.01115 -0.0063
 C4_2 0.02733 0.05522 0.03468 0.00549 0.00948 -0.00234
 C9_2 0.04428 0.10674 0.05134 0.02797 -0.00419 -0.03157
 C10_2 0.07175 0.15996 0.07382 0.05659 -0.02573 -0.0455
 O4_2 0.11345 0.09709 0.06784 0.03556 -0.02061 -0.05951
 C3_2 0.0261 0.04067 0.03097 -0.00054 0.00883 -0.00284
 O1_2 0.03027 0.0482 0.03839 -0.00757 0.01073 0.00627
 N1_3 0.0265 0.0365 0.02684 0.00294 0.0102 -0.00399
 C2_3 0.02313 0.02683 0.02864 -0.00148 0.00775 -0.0077
 C1_3 0.02792 0.03044 0.03118 -0.00044 0.00402 -0.00886
 S2_3 0.0328 0.04834 0.04504 0.01261 0.00138 -0.02089
 C11_3 0.02214 0.02417 0.03082 -0.00163 0.00993 -0.00514
 O5_3 0.02868 0.02497 0.05376 0.00823 0.01433 -0.0007
 N4_4 0.01971 0.0227 0.02423 0.00052 0.00737 -0.00333
 C12_4 0.01821 0.02197 0.02204 -0.0018 0.00515 -0.00418
 C13_4 0.02514 0.02245 0.02427 -0.00058 0.00351 -0.00622
 S3_4 0.03068 0.02409 0.02292 -0.00507 0.00434 -0.0027
 C70_4 0.01879 0.02139 0.02175 -0.00192 0.00407 -0.0037
 O33_4 0.01915 0.03577 0.0267 -0.00061 0.00283 0.00179
 N32_5 0.01884 0.02432 0.0212 -0.00115 0.00527 -0.00318
 C71_5 0.01966 0.0243 0.02779 -0.00066 0.00588 0.00109
 C72_5 0.02247 0.03574 0.03141 -0.00223 0.01072 0.00116
 C73_5 0.02903 0.03266 0.03003 -0.00978 0.01308 -0.00471
 C69_5 0.02115 0.02734 0.02199 -0.00512 0.00408 -0.00509
 C68_5 0.02587 0.0316 0.01981 -0.00084 0.00303 -0.00659
 O32_5 0.05943 0.04615 0.01879 0.00148 -0.00512 -0.01099
 N31_6 0.02416 0.02551 0.01945 0.0012 0.00127 -0.00498
 C67_6 0.0213 0.02449 0.02092 0.00233 0.00304 0.00111
 C74_6 0.02661 0.02307 0.01977 0.00202 0.00714 0.00066
 O34_6 0.02146 0.0322 0.02654 0.00493 0.00511 -0.00074
 C66_6 0.01991 0.02907 0.02085 -0.00116 0.00392 0.00357
 O31_6 0.03012 0.02996 0.0204 0.00195 0.00424 0.00093
 N30_7 0.03714 0.028 0.02131 -0.00142 0.00388 0.01033
 C65_7 0.06402 0.03802 0.02382 -0.00667 0.00538 0.02365
 C75_7 0.1699 0.04487 0.0424 -0.00996 0.00204 0.06541
 C78_7 0.19505 0.03668 0.05089 -0.01215 -0.00773 0.04119
 C76_7 0.14221 0.13299 0.11115 -0.02729 -0.02153 0.10215
 C77_7 0.13852 0.14534 0.48741 -0.05273 0.15828 0.02847
 C64_7 0.07878 0.02135 0.02137 -0.00214 0.00281 -0.00373
 O30_7 0.09585 0.03085 0.01773 -0.00084 0.00704 -0.00313
 N29_8 0.06156 0.0307 0.01897 0.00241 -0.00215 -0.01621
 C63_8 0.0951 0.06498 0.03506 0.02441 -0.02818 -0.05816
 C79_8 0.08829 0.28267 0.09269 0.13636 -0.05672 -0.13065
 C80_8 0.09846 0.16762 0.05684 0.02132 0.00889 -0.07471
 C81_8 0.14073 0.14463 0.12595 0.07508 -0.02747 -0.08439
 C62_8 0.0371 0.04152 0.02085 0.00659 -0.00103 -0.01986
 O29_8 0.03724 0.04813 0.02063 0.00581 -0.00432 -0.01946
 N28_9 0.02938 0.03865 0.0172 0.00174 0.0001 -0.01229
 C61_9 0.02317 0.03456 0.01898 -0.00023 0.00163 -0.00199
 C82_9 0.03216 0.02991 0.02539 -0.00206 0.00159 0.00175
 C60_9 0.02454 0.02126 0.01821 -0.00134 0.00119 -0.00412
 O28_9 0.02994 0.02605 0.01828 0.0021 -0.00171 0.00201
 N27_10 0.02341 0.02167 0.01616 -0.00003 -0.00097 -0.00276
 C59_10 0.02028 0.01983 0.01971 -0.0004 -0.0003 -0.00366
 C83_10 0.02108 0.02756 0.02236 -0.0025 -0.00174 -0.00235
 C84_10 0.02395 0.02704 0.03035 -0.00529 0.00108 -0.00092
 C85_10 0.03213 0.03784 0.02411 -0.00183 0.00661 -0.00387
 N33_10 0.03414 0.03518 0.03293 -0.0049 0.00601 -0.00546
 C86_10 0.05287 0.04771 0.0439 -0.0153 0.02357 -0.01906
 N34_10 0.10422 0.04881 0.04109 -0.00359 0.01688 -0.03479
 N35_10 0.08571 0.06087 0.04743 -0.02236 0.0224 -0.04608
 C58_10 0.02121 0.02281 0.01859 0.00004 -0.00099 -0.00157
 O27_10 0.02584 0.02942 0.01629 -0.00092 -0.00068 -0.00122
 N26_11 0.02619 0.0228 0.01931 -0.00081 -0.0029 -0.00488
 C57_11 0.02601 0.02107 0.02259 -0.00134 -0.00494 -0.00343
 C87_11 0.03146 0.02195 0.03182 0.00255 -0.00848 -0.00307
 O35_11 0.04119 0.02879 0.05904 0.01517 -0.01537 0.00078
 C56_11 0.02607 0.01972 0.02079 0.00078 -0.0013 -0.00377
 O26_11 0.0346 0.02438 0.02049 -0.00336 -0.00741 -0.00195
 N25_12 0.02591 0.02411 0.01835 0.0027 -0.00111 -0.00254
 C55_12 0.02483 0.02832 0.02154 0.00678 0.00142 -0.00074
 C88_12 0.03907 0.05901 0.02446 0.01257 0.01235 0.01618
 C89_12 0.02906 0.1198 0.03486 0.03031 0.0101 0.00565
 O36_12 0.05649 0.14474 0.0647 0.03495 0.01515 -0.04479
 N36_12 0.05133 0.16546 0.03722 0.01891 0.02311 0.0098
 C54_12 0.02901 0.0236 0.01794 -0.00106 0.00435 0.00064
 O25_12 0.03756 0.03316 0.01858 0.00451 -0.00265 -0.00244
 N24_13 0.03021 0.02343 0.01518 0.00208 0.00125 -0.00157
 C53_13 0.0305 0.02217 0.01529 0.00265 -0.00066 -0.00085
 C90_13 0.03693 0.02372 0.01833 -0.00009 -0.00361 -0.00805
 C91_13 0.03234 0.03066 0.02458 0.00556 -0.00428 -0.00936
 C92_13 0.04122 0.06074 0.03616 -0.00787 0.00554 -0.0166
 C93_13 0.05037 0.11271 0.03698 -0.00245 0.00494 -0.04372
 C94_13 0.07472 0.11258 0.06047 0.05498 -0.03652 -0.06667
 C95_13 0.05059 0.05585 0.10736 0.04787 -0.03984 -0.02338
 C96_13 0.04142 0.02509 0.07249 0.01149 -0.02098 -0.00789
 C52_13 0.02444 0.02232 0.014 0.00085 -0.00049 -0.00435
 O24_13 0.02826 0.0263 0.01662 0.0036 -0.0017 -0.00374
 N23_14 0.02572 0.02286 0.01513 -0.00025 0.00019 -0.00018
 C51_14 0.02093 0.0237 0.0175 0.00037 -0.00138 -0.00207
 C97_14 0.02287 0.02794 0.02518 -0.00024 -0.00345 -0.00087
 C98_14 0.0236 0.03672 0.03214 -0.00325 -0.0062 0.00196
 O37_14 0.02697 0.04521 0.05413 0.00389 -0.00963 -0.00681
 N37_14 0.03091 0.04997 0.04719 -0.00259 -0.01387 0.00844
 C50_14 0.01863 0.02446 0.01729 -0.00034 -0.00044 -0.00301
 O23_14 0.02544 0.03792 0.01785 -0.00032 0.0028 -0.0079
 N22_15 0.02015 0.02106 0.01738 -0.00005 0.00019 -0.00204
 C49_15 0.01783 0.01962 0.01855 0.00214 -0.00007 -0.00326
 C99_15 0.02169 0.02133 0.02479 0.00587 0.00066 -0.0049
 C100_15 0.02246 0.03683 0.04185 0.01649 -0.00531 -0.00892
 C101_15 0.03133 0.02243 0.04207 0.0134 -0.00259 -0.0035
 C48_15 0.02103 0.01713 0.01966 0.00359 0.00075 -0.00432
 O22_15 0.02568 0.02304 0.02027 0.00297 -0.00199 -0.00399
 N21_16 0.02438 0.01835 0.01906 0.00263 0.00052 -0.00204
 C47_16 0.01942 0.0188 0.02075 0.00074 0.00038 -0.00065
 C102_16 0.03142 0.02107 0.02385 -0.00135 0.00231 -0.00049
 S5_16 0.02763 0.02039 0.03633 -0.00387 -0.00469 0.00323
 C46_16 0.02053 0.01779 0.021 0.00133 -0.0012 -0.00155
 O21_16 0.02553 0.02327 0.02179 0.00464 -0.00384 0.0016
 N20_17 0.02069 0.02026 0.01738 0.00354 -0.00079 -0.00217
 C45_17 0.01893 0.02004 0.01929 0.00308 0.00028 -0.00349
 C104_17 0.01899 0.02085 0.02736 0.00271 0.00009 -0.00192
 C105_17 0.02421 0.02741 0.0223 0.0034 -0.00261 -0.00728
 C106_17 0.02226 0.0203 0.0324 0.00038 0.00493 -0.00463
 N38_17 0.02372 0.02728 0.03472 0.00365 0.0065 -0.0021
 C107_17 0.02527 0.0237 0.02718 -0.00056 0.00398 -0.00321
 N39_17 0.02698 0.0365 0.03476 0.00919 0.00891 0.00163
 N40_17 0.02546 0.04255 0.033 0.00183 0.00811 -0.00077
 C44_17 0.02155 0.02208 0.0201 0.00034 0.00108 -0.00433
 O20_17 0.03075 0.03245 0.01997 0.00175 0.00357 -0.01175
 N19_18 0.02336 0.02143 0.02051 0.00205 0.00081 -0.00261
 C43_18 0.02473 0.01888 0.02095 0.00101 0.00223 -0.00065
 C108_18 0.03325 0.01841 0.0287 0.0038 -0.00298 -0.00494
 C109_18 0.0376 0.02169 0.026 0.00493 -0.00223 -0.00238
 C111_18 0.04612 0.03388 0.0533 0.01993 -0.00684 -0.00966
 C110_18 0.04851 0.03421 0.05087 0.0107 0.00536 0.01257
 C42_18 0.023 0.01566 0.01939 -0.00025 0.00233 -0.00203
 O19_18 0.0284 0.0215 0.02078 -0.00033 0.00576 -0.00013
 N18_19 0.02344 0.02195 0.0176 0.00061 0.00247 -0.00171
 C112_19 0.02622 0.04213 0.01992 -0.00061 0.00389 0.00404
 C113_19 0.02954 0.03581 0.0358 -0.00146 0.00328 0.0008
 C114_19 0.02354 0.03262 0.0277 0.00008 -0.00288 -0.00014
 C41_19 0.02409 0.02245 0.02032 -0.00072 -0.00019 -0.00139
 C40_19 0.02722 0.02605 0.02564 0.00678 0.00209 0.00195
 O18_19 0.04533 0.05342 0.04272 0.02771 -0.00883 -0.01178
 N17_20 0.02618 0.01688 0.02957 -0.0007 0.00697 -0.00333
 C39_20 0.0344 0.02106 0.03578 -0.00414 0.01712 -0.00314
 C38_20 0.02409 0.01865 0.0321 -0.00115 0.00783 -0.00188
 O17_20 0.04864 0.02376 0.04018 -0.00084 0.01469 -0.01203
 N16_21 0.0221 0.01766 0.0246 -0.00137 0.00543 -0.0027
 C37_21 0.01787 0.01654 0.02224 0.00004 0.00037 0.00038
 C115_21 0.01733 0.01743 0.02303 0.00074 -0.00048 -0.00064
 C116_21 0.02525 0.02415 0.0313 -0.00438 0.00602 0.00181
 O38_21 0.02083 0.02193 0.02894 0.00222 -0.00255 -0.00546
 C36_21 0.01855 0.01851 0.02223 -0.00093 0.00131 -0.00139
 O16_21 0.0218 0.02763 0.03668 0.00655 -0.0063 -0.00291
 N15_22 0.02576 0.01852 0.02654 -0.00323 0.00202 -0.0036
 C117_22 0.05325 0.03117 0.0651 0.01094 -0.00925 -0.00044
 C118_22 0.07065 0.02906 0.07447 0.01062 -0.01977 -0.01107
 C119_22 0.06509 0.0222 0.04731 0.0002 0.01051 -0.01413
 C35_22 0.02888 0.02532 0.02472 -0.00376 0.00363 -0.00947
 C34_22 0.02807 0.02656 0.02269 -0.00509 0.00374 -0.00819
 O15_22 0.02916 0.05247 0.02538 -0.00729 0.00869 -0.01634
 N14_23 0.02614 0.02539 0.0221 -0.005 0.00594 -0.00743
 C33_23 0.0247 0.02014 0.02338 -0.00123 0.00586 -0.00276
 C120_23 0.02457 0.0277 0.03142 -0.00404 0.00511 -0.00114
 C121_23 0.02901 0.03346 0.03864 -0.00765 0.00724 0.00355
 C122_23 0.03092 0.06621 0.05495 -0.01294 0.00698 0.01098
 O39_23 0.03214 0.09215 0.09711 -0.03756 -0.0033 -0.00146
 O40_23 0.04662 0.07511 0.11812 -0.01374 0.00615 0.0276
 C32_23 0.02023 0.02023 0.02189 -0.00102 0.00448 -0.00202
 O14_23 0.02951 0.02759 0.0205 0.00263 0.00676 0.00098
 N13_24 0.02284 0.02139 0.01988 0.0002 0.00342 -0.00301
 C31_24 0.02353 0.02 0.01967 -0.00178 0.00244 -0.00315
 C123_24 0.0369 0.01978 0.03409 0.00014 0.00681 -0.00518
 C30_24 0.02275 0.01686 0.02083 0.00103 0.0015 -0.00162
 O13_24 0.02556 0.02739 0.01992 -0.00194 0.00301 -0.00186
 N12_25 0.02444 0.02103 0.01773 -0.00074 0.00163 -0.00377
 C29_25 0.02213 0.01698 0.01951 0.00012 -0.00032 -0.00065
 C124_25 0.02598 0.02143 0.02289 0.00045 -0.00295 0.00155
 C125_25 0.03051 0.02873 0.0346 0.01035 -0.00897 -0.00071
 C126_25 0.06702 0.08993 0.03465 -0.00117 -0.01224 0.02534
 C127_25 0.03545 0.03735 0.0587 -0.0119 -0.01415 0.01025
 C28_25 0.02036 0.02001 0.01926 0.00144 0.00043 -0.0016
 O12_25 0.02648 0.02706 0.0242 0.00614 0.00765 0.00295
 N11_26 0.02251 0.01977 0.01732 0.0025 0.00291 0.00087
 C27_26 0.02447 0.01911 0.01725 0.00222 0.00171 -0.00137
 C103_26 0.02447 0.02211 0.02119 0.00173 0.00125 0.00281
 S6_26 0.03713 0.02204 0.01898 -0.00002 0.00025 0.00198
 C26_26 0.0226 0.02344 0.01596 0.00206 0.00189 0.00082
 O11_26 0.03153 0.0273 0.0192 0.0059 0.00284 -0.00593
 N10_27 0.02231 0.02424 0.01662 0.00183 0.00141 -0.00279
 C25_27 0.02053 0.02295 0.01654 0.00267 0.00046 -0.00059
 C128_27 0.02599 0.02817 0.02314 0.00179 -0.00084 -0.0061
 C24_27 0.02196 0.0227 0.01792 0.00143 -0.00062 -0.00082
 O10_27 0.02724 0.03324 0.01795 0.00487 0.00158 0.00113
 N9_28 0.02635 0.02497 0.01977 0.00404 0.00176 0.00453
 C23_28 0.02644 0.02589 0.02624 0.00232 0.0054 0.00475
 C129_28 0.02203 0.02401 0.03165 -0.00087 0.00203 0.00157
 C130_28 0.03492 0.02635 0.04702 -0.00421 -0.00474 -0.00389
 O41_28 0.0244 0.02697 0.03066 0.00068 -0.00323 0.00023
 C22_28 0.02975 0.02639 0.02427 0.00296 0.00741 0.00535
 O9_28 0.06157 0.03723 0.04272 -0.00211 0.03157 -0.00538
 N8_29 0.0207 0.02574 0.02374 0.00426 0.00202 0.00258
 C21_29 0.02073 0.03262 0.02536 0.01011 0.00063 -0.00085
 C131_29 0.03614 0.04636 0.02679 0.00593 -0.00289 -0.01245
 C132_29 0.13931 0.10611 0.04604 0.01799 -0.03119 -0.09623
 C133_29 0.09645 0.05033 0.06976 -0.00504 0.00871 -0.0063
 C134_29 0.16734 0.07813 0.08908 0.01618 -0.0359 -0.05289
 C135_29 0.09733 0.05386 0.07681 0.01484 0.00015 0.00345
 O42_29 0.21306 0.05115 0.1903 0.01234 -0.12426 -0.02448
 C136_29 0.10156 0.08002 0.08531 -0.0165 0.03659 -0.00961
 C137_29 0.07601 0.09476 0.05268 -0.00443 0.0081 -0.01067
 C20_29 0.0208 0.03385 0.0228 0.0091 0.00336 0.00349
 O8_29 0.02245 0.06985 0.0479 0.0334 0.01088 0.00708
 N7_30 0.01888 0.02489 0.02786 0.00902 0.00232 0.00168
 C19_30 0.02343 0.02874 0.04089 0.01897 0.00638 0.00233
 C138_30 0.03453 0.02895 0.0513 0.0164 0.01067 0.008
 C139_30 0.06272 0.02586 0.09493 -0.01179 0.03107 -0.006
 O43_30 0.02465 0.04228 0.03446 0.01361 0.00539 0.00734
 C18_30 0.02281 0.05331 0.03504 0.02077 0.00416 0.00498
 O7_30 0.04511 0.0682 0.04189 0.03433 0.00296 0.00579
 N6_31 0.02254 0.04818 0.02589 0.01079 0.00073 -0.00009
 C17_31 0.02401 0.07065 0.02288 -0.00122 0.0052 0.00663
 C16_31 0.02357 0.03617 0.02219 0.0051 0.00287 0.00361
 O6_31 0.02925 0.04036 0.02578 -0.00516 -0.00316 0.00535
 N5_32 0.02147 0.03623 0.02017 0.00128 0.00255 -0.00545
 C15_32 0.0203 0.02546 0.02097 -0.00015 0.00212 -0.00297
 C14_32 0.02696 0.02648 0.02228 -0.00125 0.00367 -0.00339
 S4_32 0.02522 0.02468 0.02854 -0.00045 -0.00165 -0.0074
 C140_32 0.02434 0.0281 0.02271 -0.00169 0.00267 -0.00183
 O44_32 0.02693 0.03471 0.03689 0.00738 -0.0002 0.00296
 N41_33 0.02639 0.01964 0.04307 -0.00334 0.01114 -0.00251
 C141_33 0.02955 0.02058 0.03419 -0.00259 0.01031 -0.00092
 C199_33 0.04825 0.01998 0.03989 -0.00339 0.00559 -0.00342
 C202_33 0.06045 0.03691 0.03603 -0.00781 0.01147 0.00321
 C200_33 0.04601 0.02844 0.03859 -0.00183 -0.00068 -0.00673
 C201_33 0.08016 0.04144 0.04245 0.00244 -0.01347 -0.01743
 C142_33 0.02282 0.02966 0.03554 -0.00483 0.00788 -0.00503
 O45_33 0.03461 0.0311 0.04061 -0.00066 0.01304 0.00224
 N42_34 0.02668 0.03334 0.04129 0.0032 0.01202 -0.00341
 C143_34 0.02177 0.03521 0.04511 0.00773 0.00537 -0.0019
 C195_34 0.03003 0.06525 0.03821 -0.00304 -0.00171 -0.00205
 C198_34 0.04199 0.14692 0.04451 0.00706 0.0017 0.00171
 C196_34 0.03992 0.071 0.08013 -0.03241 -0.01926 0.00933
 C197_34 0.04938 0.13981 0.0703 -0.06789 -0.02148 0.01784
 C144_34 0.0253 0.03403 0.03716 0.00833 0.0032 -0.00237
 O46_34 0.0313 0.03866 0.07425 -0.00464 -0.00418 0.00124
 N43_35 0.02269 0.03786 0.05137 0.00743 0.00761 -0.00185
 C145_35 0.02772 0.05048 0.05156 0.00889 0.00599 -0.00634
 C191_35 0.03598 0.07412 0.04965 0.01931 -0.00268 -0.0195
 C194_35 0.06177 0.15118 0.04097 0.00601 0.00231 -0.02573
 C192_35 0.04651 0.06481 0.07396 0.03912 -0.01398 -0.01527
 C193_35 0.06386 0.11663 0.11925 0.07127 -0.04184 -0.03689
 C146_35 0.02276 0.03954 0.05426 0.00919 0.00004 -0.00552
 O47_35 0.03143 0.04994 0.0634 0.01148 0.01331 -0.00472
 N44_36 0.02917 0.04302 0.06789 0.01606 0.00266 -0.00575
 C190_36 0.05282 0.04162 0.08597 -0.00226 0.00501 -0.01781
 C189_36 0.07924 0.06143 0.07146 0.01578 -0.0195 -0.03908
 C188_36 0.06681 0.0605 0.12117 0.04729 -0.00174 -0.02262
 C147_36 0.03461 0.05365 0.06346 0.02036 0.00642 -0.01
 C148_36 0.02566 0.05508 0.08769 0.02296 0.00258 -0.01086
 O48_36 0.0454 0.08827 0.08629 0.01113 0.02254 -0.0065
 N45_37 0.03123 0.05367 0.08026 0.01798 -0.00621 -0.0109
 C149_37 0.03089 0.05624 0.14213 0.02959 -0.03291 -0.012
 C150_37 0.03005 0.06042 0.09239 0.02776 -0.01205 -0.01042
 O49_37 0.03852 0.06834 0.1577 0.03227 -0.04141 -0.01449
 N46_38 0.0294 0.05217 0.09111 0.02686 -0.01283 -0.01284
 C151_38 0.03564 0.0587 0.1073 0.02474 -0.01404 -0.01057
 C187_38 0.06446 0.082 0.11076 -0.0056 0.00316 -0.00806
 C152_38 0.02713 0.05993 0.12258 0.04174 -0.00502 -0.01182
 O50_38 0.09246 0.05837 0.15201 0.04092 -0.02303 -0.00861
 N47_39 0.02583 0.05664 0.08605 0.02657 0.00338 -0.00222
 C153_39 0.02131 0.10212 0.13106 0.07663 -0.00237 -0.01287
 C185_39 0.03177 0.1651 0.1011 0.08264 -0.0158 -0.02739
 C186_39 0.05572 0.15914 0.08845 0.06008 -0.01009 -0.02116
 O64_39 0.02472 0.14096 0.11504 0.08845 -0.00861 -0.01585
 C154_39 0.03245 0.06275 0.07662 0.02388 -0.0023 -0.01386
 O51_39 0.06709 0.08574 0.13607 0.03203 -0.00128 -0.03305
 N48_40 0.02338 0.0618 0.07184 0.02091 0.00427 -0.00698
 C155_40 0.02221 0.05632 0.06333 0.0084 -0.0024 -0.00397
 C156_40 0.03098 0.05904 0.05265 0.00642 0.00728 -0.01464
 S1_40 0.02999 0.07175 0.05263 0.00071 0.01336 -0.00683
 C157_40 0.02591 0.0576 0.07782 0.00218 -0.00606 -0.00323
 O52_40 0.03537 0.08491 0.07327 0.00222 -0.01415 0.01219
 N49_41 0.03023 0.05927 0.07378 -0.00714 -0.00772 -0.00233
 C184_41 0.0497 0.05843 0.10214 0.01565 0.00654 0.00372
 C183_41 0.06074 0.05174 0.162 -0.00735 0.03376 0.00919
 C182_41 0.07759 0.07345 0.09332 -0.02845 -0.00254 -0.01432
 C158_41 0.03566 0.06484 0.08194 -0.01214 -0.0024 -0.01322
 C159_41 0.02846 0.06991 0.05463 -0.01733 -0.00643 0.0019
 O53_41 0.0295 0.07126 0.05716 -0.01576 -0.00609 -0.00277
 N50_42 0.05132 0.05951 0.0767 -0.01594 -0.03209 0.00711
 C160_42 0.05431 0.07333 0.07446 -0.02025 -0.03194 0.02225
 C161_42 0.05095 0.0506 0.05597 -0.01067 -0.01974 0.02085
 O54_42 0.06957 0.04603 0.08702 0.00262 -0.01721 0.01677
 N51_43 0.04408 0.03668 0.03636 -0.00863 -0.00614 0.01299
 C162_43 0.04243 0.04661 0.02968 -0.00854 0.00049 0.01182
 C180_43 0.05367 0.04839 0.03725 -0.01123 0.00465 0.0038
 C181_43 0.03753 0.04213 0.04779 -0.00802 0.00648 -0.00155
 O62_43 0.0621 0.04203 0.08969 -0.01121 0.00453 0.01201
 O63_43 0.05371 0.04707 0.08346 -0.02168 0.00907 0.00592
 C163_43 0.03444 0.03045 0.02561 -0.00378 0.006 0.00469
 O55_43 0.03707 0.03856 0.03545 -0.00345 0.01659 0.00062
 N52_44 0.02561 0.03126 0.02985 -0.00654 0.00412 0.00006
 C164_44 0.01993 0.02517 0.03162 -0.00439 0.005 -0.00069
 C173_44 0.02927 0.03455 0.0296 -0.00068 0.00869 -0.00494
 C174_44 0.02606 0.02822 0.02916 0.00091 0.00283 -0.00396
 C175_44 0.03296 0.03056 0.0374 -0.00555 0.00061 -0.00454
 C176_44 0.03469 0.02928 0.04032 -0.00589 -0.00366 -0.0028
 C177_44 0.03273 0.02614 0.03148 0.00187 0.00273 -0.0009
 O61_44 0.03317 0.03113 0.04821 -0.00401 0.00046 0.005
 C178_44 0.03146 0.03075 0.03049 -0.00099 -0.00189 -0.00341
 C179_44 0.03108 0.02961 0.02966 -0.00142 0.00196 -0.00627
 C165_44 0.01953 0.03048 0.03224 -0.00701 0.0063 -0.00257
 O56_44 0.02452 0.03918 0.04016 -0.00659 0.01297 -0.00219
 N53_45 0.01865 0.03434 0.03471 -0.00798 0.00368 0.00309
 C166_45 0.01847 0.03676 0.04447 -0.01489 -0.00204 0.00543
 C172_45 0.03626 0.05591 0.04096 -0.01209 -0.0076 0.0166
 C167_45 0.01867 0.03458 0.03999 -0.01084 -0.00231 0.00546
 O57_45 0.02054 0.04752 0.05734 -0.02423 -0.00541 0.01
 N54_46 0.01863 0.03344 0.03972 -0.00911 0.00062 0.00328
 C168_46 0.01786 0.03148 0.04765 -0.01005 -0.00264 0.00512
 C170_46 0.02139 0.03963 0.05971 -0.00042 -0.00195 0.00162
 C171_46 0.03444 0.07516 0.06105 0.01086 -0.004 -0.00775
 O60_46 0.05039 0.20296 0.0759 -0.00525 0.00556 0.03453
 N55_46 0.05502 0.09037 0.0878 0.03467 -0.0109 0.01698
 C169_46 0.022 0.03443 0.04675 -0.0099 0.00187 0.0031
 O58_46 0.0274 0.04064 0.04609 -0.0148 0.00679 -0.00116
 O59_46 0.04239 0.04199 0.04735 -0.00659 -0.01529 -0.00682

