data_Co110
_audit_creation_method            
 'Olex2: Apr  8 2022 09:20:22 MSC:193131104 on WIN64, Python: 3.8.6, wxWidgets: 3.1.5'
_chemical_name_common              '?'
_chemical_name_systematic          '?'
_chemical_formula_moiety           'C16 H16 Co F6 N4 O4 S2'
_chemical_formula_sum              'C16 H16 Co F6 N4 O4 S2'
_chemical_formula_weight           565.39
_chemical_melting_point            ?
_space_group_crystal_system        'triclinic'
_space_group_IT_number             2
_space_group_name_H-M_alt          'P -1'
_space_group_name_Hall             '-P 1'
loop_
  _space_group_symop_id
  _space_group_symop_operation_xyz
 1 +X,+Y,+Z
 2 -X,-Y,-Z

_cell_length_a                     7.9999(2)
_cell_length_b                     9.3718(3)
_cell_length_c                     14.7362(5)
_cell_angle_alpha                  82.625(1)
_cell_angle_beta                   81.527(1)
_cell_angle_gamma                  81.726(1)
_cell_volume                       1074.89(6)
_cell_formula_units_Z              2
_diffrn_reflns_av_R_equivalents    0.0290
_diffrn_reflns_av_unetI/netI       0.0369
_diffrn_reflns_limit_h_max         10
_diffrn_reflns_limit_h_min         -9
_diffrn_reflns_limit_k_max         12
_diffrn_reflns_limit_k_min         -12
_diffrn_reflns_limit_l_max         19
_diffrn_reflns_limit_l_min         -19
_diffrn_reflns_number              11963
_diffrn_reflns_theta_max           27.48
_diffrn_reflns_theta_min           1.41
_diffrn_ambient_temperature        ?
_diffrn_radiation_wavelength       0.71073
_reflns_number_total               4897
_refine_diff_density_max           0.35
loop_
  _atom_site_label
  _atom_site_type_symbol
  _atom_site_fract_x
  _atom_site_fract_y
  _atom_site_fract_z
  _atom_site_U_iso_or_equiv
  _atom_site_adp_type
  _atom_site_occupancy
  _atom_site_refinement_flags_posn
  _atom_site_site_symmetry_order
  _atom_site_disorder_group
 Co Co 0.09896(6) 0.20541(5) 0.24460(3) 0.0179(4) Uani 1 . 1 .
 S21 S 0.46582(11) 0.03710(9) 0.19097(6) 0.0224(6) Uani 1 . 1 .
 F21 F 0.41270(14) -0.19754(11) 0.12433(7) 0.0401(3) Uani 1 . 1 .
 F22 F 0.59607(12) -0.23706(10) 0.22073(8) 0.0401(3) Uani 1 . 1 .
 F23 F 0.32931(12) -0.19324(10) 0.26963(7) 0.0327(3) Uani 1 . 1 .
 O21 O 0.60644(13) 0.05365(11) 0.11927(8) 0.0241(3) Uani 1 . 1 .
 O22 O 0.48131(14) 0.06064(12) 0.28328(7) 0.0259(3) Uani 1 . 1 .
 N21 N 0.29077(16) 0.11215(14) 0.16325(8) 0.0209(3) Uani 1 . 1 .
 N22 N 0.00132(15) 0.26852(13) 0.12302(8) 0.0178(3) Uani 1 . 1 .
 C21 C 0.4502(2) -0.15943(17) 0.20225(11) 0.0242(4) Uani 1 . 1 .
 C22 C 0.2722(3) 0.1330(3) 0.06463(12) 0.0353(5) Uani 1 . 1 .
 H22a H 0.373(3) 0.190(3) 0.0267(13) 0.074(9) Uani 1 . 1 .
 H22b H 0.280(3) 0.028(2) 0.0393(15) 0.070(8) Uani 1 . 1 .
 C23 C 0.1041(2) 0.22181(17) 0.04902(10) 0.0221(3) Uani 1 . 1 .
 C24 C 0.0592(3) 0.2525(2) -0.03959(12) 0.0300(4) Uani 1 . 1 .
 H24 H 0.140(3) 0.213(2) -0.0937(13) 0.054(6) Uani 1 . 1 .
 C25 C -0.0955(2) 0.3353(2) -0.05214(13) 0.0312(4) Uani 1 . 1 .
 H25 H -0.130(2) 0.361(2) -0.1195(13) 0.049(6) Uani 1 . 1 .
 C26 C -0.2019(3) 0.38395(19) 0.02460(12) 0.0297(4) Uani 1 . 1 .
 H26 H -0.322(2) 0.446(2) 0.0161(14) 0.053(6) Uani 1 . 1 .
 C27 C -0.1508(2) 0.34856(16) 0.11180(11) 0.0225(3) Uani 1 . 1 .
 C28 C -0.2607(3) 0.3945(3) 0.19713(15) 0.0341(4) Uani 1 . 1 .
 H28a H -0.295(3) 0.301(3) 0.2436(16) 0.076(8) Uani 1 . 1 .
 H28b H -0.189(3) 0.458(3) 0.2314(14) 0.063(7) Uani 1 . 1 .
 H28c H -0.381(3) 0.454(3) 0.1810(15) 0.077(8) Uani 1 . 1 .
 S11 S 0.19321(10) 0.47426(8) 0.32332(5) 0.0208(5) Uani 1 . 1 .
 F11 F 0.30008(12) 0.41641(10) 0.48599(6) 0.0306(2) Uani 1 . 1 .
 F12 F 0.45729(14) 0.54575(11) 0.38620(8) 0.0404(3) Uani 1 . 1 .
 F13 F 0.46949(12) 0.31746(10) 0.37820(7) 0.0311(2) Uani 1 . 1 .
 O11 O 0.09106(14) 0.59883(11) 0.35906(8) 0.0257(3) Uani 1 . 1 .
 O12 O 0.28285(14) 0.48768(11) 0.23132(7) 0.0235(3) Uani 1 . 1 .
 N11 N 0.10177(16) 0.33506(13) 0.33946(8) 0.0185(3) Uani 1 . 1 .
 N12 N -0.06014(15) 0.10721(13) 0.34702(8) 0.0177(3) Uani 1 . 1 .
 C11 C 0.3658(2) 0.43612(17) 0.39738(11) 0.0230(3) Uani 1 . 1 .
 C12 C -0.0281(2) 0.31884(19) 0.42062(12) 0.0225(4) Uani 1 . 1 .
 H12a H 0.027(2) 0.3177(16) 0.4830(11) 0.024(4) Uani 1 . 1 .
 H12b H -0.133(2) 0.4080(18) 0.4169(12) 0.040(5) Uani 1 . 1 .
 C13 C -0.09923(19) 0.17804(16) 0.42306(10) 0.0196(3) Uani 1 . 1 .
 C14 C -0.2040(2) 0.12571(19) 0.50041(12) 0.0246(4) Uani 1 . 1 .
 H14 H -0.227(3) 0.182(2) 0.5621(12) 0.046(5) Uani 1 . 1 .
 C15 C -0.2699(2) -0.0032(2) 0.49865(13) 0.0285(4) Uani 1 . 1 .
 H15 H -0.347(3) -0.047(2) 0.5563(13) 0.043(5) Uani 1 . 1 .
 C16 C -0.2297(2) -0.0752(2) 0.41946(12) 0.0274(4) Uani 1 . 1 .
 H16 H -0.280(3) -0.176(2) 0.4157(12) 0.047(6) Uani 1 . 1 .
 C17 C -0.12457(19) -0.01798(16) 0.34430(11) 0.0212(3) Uani 1 . 1 .
 C18 C -0.0798(3) -0.0876(2) 0.25610(13) 0.0250(4) Uani 1 . 1 .
 H18a H -0.149(3) -0.029(2) 0.2032(14) 0.052(6) Uani 1 . 1 .
 H18b H 0.053(3) -0.087(3) 0.2302(14) 0.064(7) Uani 1 . 1 .
 H18c H -0.110(3) -0.194(2) 0.2656(12) 0.051(6) Uani 1 . 1 .

loop_
  _atom_site_aniso_label
  _atom_site_aniso_U_11
  _atom_site_aniso_U_22
  _atom_site_aniso_U_33
  _atom_site_aniso_U_23
  _atom_site_aniso_U_13
  _atom_site_aniso_U_12
 Co 0.0185(5) 0.0203(4) 0.0137(4) -0.0069(2) 0.0007(2) 0.0035(2)
 S21 0.0214(8) 0.0237(8) 0.0214(8) -0.0076(4) -0.0014(5) 0.0027(4)
 F21 0.0506(7) 0.0355(6) 0.0382(6) -0.0170(5) 0.0022(5) -0.0163(5)
 F22 0.0236(6) 0.0233(5) 0.0691(8) -0.0043(5) -0.0002(5) 0.0050(4)
 F23 0.0266(6) 0.0302(5) 0.0364(6) 0.0034(4) 0.0051(4) -0.0027(4)
 O21 0.0186(6) 0.0271(6) 0.0250(6) -0.0045(5) 0.0018(5) -0.0007(5)
 O22 0.0259(6) 0.0311(6) 0.0207(6) -0.0094(5) -0.0074(5) 0.0065(5)
 N21 0.0191(7) 0.0279(7) 0.0138(6) -0.0073(5) 0.0003(5) 0.0056(5)
 N22 0.0173(7) 0.0218(6) 0.0140(6) -0.0032(5) -0.0033(5) 0.0014(5)
 C21 0.0200(8) 0.0211(8) 0.0302(9) -0.0050(7) 0.0011(7) -0.0002(6)
 C22 0.0292(11) 0.0585(14) 0.0130(9) -0.0094(9) -0.0032(7) 0.0171(10)
 H22a 0.052(17) 0.14(3) 0.008(12) 0.012(13) 0.019(11) 0.010(16)
 H22b 0.10(2) 0.063(16) 0.051(15) -0.034(13) -0.066(14) 0.046(15)
 C23 0.0219(8) 0.0300(9) 0.0134(8) -0.0045(6) -0.0036(6) 0.0028(7)
 C24 0.0331(11) 0.0422(11) 0.0143(8) -0.0045(8) -0.0051(7) 0.0002(8)
 H24 0.076(17) 0.060(15) 0.025(13) 0.004(11) -0.031(12) 0.013(12)
 C25 0.0329(10) 0.040(1) 0.0213(9) 0.0040(8) -0.0129(8) -0.0038(8)
 H25 0.037(13) 0.083(16) 0.027(12) 0.003(11) -0.02(1) 0.001(11)
 C26 0.0277(10) 0.0322(10) 0.029(1) 0.0023(7) -0.0132(8) 0.0015(8)
 H26 0.019(12) 0.074(16) 0.057(16) -0.000(12) -0.007(10) 0.022(11)
 C27 0.0200(8) 0.0234(8) 0.0229(8) -0.0006(6) -0.0053(7) 0.0015(6)
 C28 0.0242(11) 0.0416(12) 0.0313(11) -0.0066(9) -0.0020(8) 0.0142(9)
 H28a 0.09(2) 0.062(17) 0.049(17) 0.001(13) 0.013(15) 0.035(15)
 H28b 0.050(16) 0.10(2) 0.043(15) -0.046(14) -0.011(12) 0.016(14)
 H28c 0.064(17) 0.081(18) 0.064(18) -0.000(14) 0.003(14) 0.046(15)
 S11 0.0244(6) 0.0206(6) 0.0169(6) -0.0043(4) -0.0036(4) 0.0012(4)
 F11 0.0361(6) 0.0360(6) 0.0196(5) -0.0068(4) -0.0083(4) 0.0042(4)
 F12 0.0477(7) 0.0356(6) 0.0452(7) 0.0043(5) -0.0253(5) -0.0174(5)
 F13 0.0267(6) 0.0352(6) 0.0304(6) -0.0081(4) -0.0068(4) 0.0069(4)
 O11 0.0309(7) 0.0184(6) 0.0268(6) -0.0051(5) -0.0046(5) 0.0037(5)
 O12 0.0256(6) 0.0270(6) 0.0173(6) -0.0012(5) -0.0025(5) -0.0030(5)
 N11 0.0205(7) 0.0207(7) 0.0142(6) -0.0058(5) -0.0005(5) -0.0009(5)
 N12 0.0173(7) 0.0205(6) 0.0147(6) -0.0023(5) -0.0015(5) -0.0007(5)
 C11 0.0265(9) 0.0230(8) 0.0207(8) -0.0032(6) -0.0073(7) -0.0016(7)
 C12 0.0239(9) 0.0258(9) 0.0168(8) -0.0089(7) 0.0033(7) -0.0004(7)
 H12a 0.035(12) 0.021(10) 0.015(10) -0.018(8) 0.012(9) -0.002(8)
 H12b 0.045(13) 0.027(11) 0.036(13) -0.015(9) 0.016(10) 0.019(10)
 C13 0.0176(8) 0.0245(8) 0.0155(7) -0.0040(6) 0.0008(6) 0.0004(6)
 C14 0.0211(9) 0.0346(9) 0.0154(8) 0.0005(7) 0.0010(6) -0.0005(7)
 H14 0.054(14) 0.061(14) 0.020(12) -0.013(10) 0.007(10) -0.003(11)
 C15 0.0221(9) 0.0393(10) 0.0217(9) 0.0070(8) -0.0012(7) -0.0073(8)
 H15 0.047(14) 0.046(13) 0.029(12) 0.005(10) 0.003(10) 0.00(1)
 C16 0.0244(9) 0.0311(10) 0.0271(9) 0.0062(8) -0.0076(7) -0.0090(7)
 H16 0.056(15) 0.058(14) 0.024(12) 0.002(10) 0.013(10) -0.021(12)
 C17 0.0190(8) 0.0232(8) 0.0217(8) 0.0002(6) -0.0065(6) -0.0027(6)
 C18 0.0254(10) 0.0232(9) 0.0289(10) -0.0063(8) -0.0091(8) -0.0028(8)
 H18a 0.076(17) 0.048(14) 0.032(13) -0.005(11) -0.026(12) 0.014(12)
 H18b 0.026(14) 0.12(2) 0.054(16) -0.043(14) 0.005(12) -0.027(13)
 H18c 0.082(18) 0.044(14) 0.031(13) -0.003(10) -0.015(12) -0.017(13)

loop_
  _geom_bond_atom_site_label_1
  _geom_bond_atom_site_label_2
  _geom_bond_distance
  _geom_bond_site_symmetry_2
  _geom_bond_publ_flag
 Co N21 1.9740(12) . ?
 Co N22 2.0438(13) . ?
 Co N11 1.9708(12) . ?
 Co N12 2.0394(13) . ?
 S21 O21 1.4366(13) . ?
 S21 O22 1.4314(13) . ?
 S21 N21 1.5601(15) . ?
 S21 C21 1.8486(18) . ?
 F21 C21 1.3317(19) . ?
 F22 C21 1.3282(18) . ?
 F23 C21 1.3213(18) . ?
 N21 C22 1.468(2) . ?
 N22 C23 1.3459(18) . ?
 N22 C27 1.3551(19) . ?
 C23 C22 1.508(2) . ?
 C24 C23 1.389(2) . ?
 C25 C24 1.386(3) . ?
 C26 C25 1.396(3) . ?
 C27 C26 1.391(2) . ?
 C28 C27 1.498(2) . ?
 S11 O11 1.4369(13) . ?
 S11 O12 1.4366(13) . ?
 S11 N11 1.5612(14) . ?
 S11 C11 1.8512(18) . ?
 F11 C11 1.3339(18) . ?
 F12 C11 1.3252(18) . ?
 F13 C11 1.3232(18) . ?
 N11 C12 1.4714(19) . ?
 N12 C13 1.3498(18) . ?
 N12 C17 1.3550(19) . ?
 C13 C12 1.505(2) . ?
 C14 C13 1.391(2) . ?
 C15 C14 1.390(2) . ?
 C16 C15 1.397(3) . ?
 C17 C16 1.387(2) . ?
 C18 C17 1.502(2) . ?

loop_
  _geom_angle_atom_site_label_1
  _geom_angle_atom_site_label_2
  _geom_angle_atom_site_label_3
  _geom_angle
  _geom_angle_site_symmetry_1
  _geom_angle_site_symmetry_3
  _geom_angle_publ_flag
 N21 Co N22 82.82(5) . . ?
 N21 Co N11 129.40(6) . . ?
 N21 Co N12 127.72(6) . . ?
 N22 Co N11 124.44(5) . . ?
 N22 Co N12 115.14(5) . . ?
 N11 Co N12 82.13(5) . . ?
 O21 S21 O22 119.80(9) . . ?
 O21 S21 N21 113.82(9) . . ?
 O21 S21 C21 103.12(8) . . ?
 O22 S21 N21 110.52(8) . . ?
 O22 S21 C21 102.47(9) . . ?
 N21 S21 C21 104.97(9) . . ?
 Co N21 S21 126.92(8) . . ?
 Co N21 C22 115.24(10) . . ?
 S21 N21 C22 117.36(11) . . ?
 Co N22 C23 113.53(10) . . ?
 Co N22 C27 126.77(10) . . ?
 C23 N22 C27 119.70(13) . . ?
 S21 C21 F21 110.65(11) . . ?
 S21 C21 F22 111.17(11) . . ?
 S21 C21 F23 110.32(11) . . ?
 F21 C21 F22 107.98(13) . . ?
 F21 C21 F23 108.31(13) . . ?
 F22 C21 F23 108.31(13) . . ?
 N21 C22 C23 110.46(13) . . ?
 N22 C23 C22 117.95(14) . . ?
 N22 C23 C24 122.04(15) . . ?
 C22 C23 C24 120.01(14) . . ?
 C23 C24 C25 118.86(17) . . ?
 C24 C25 C26 119.07(17) . . ?
 C25 C26 C27 119.51(17) . . ?
 N22 C27 C26 120.83(15) . . ?
 N22 C27 C28 117.03(15) . . ?
 C26 C27 C28 122.14(16) . . ?
 O11 S11 O12 119.72(8) . . ?
 O11 S11 N11 113.86(8) . . ?
 O11 S11 C11 102.63(8) . . ?
 O12 S11 N11 109.72(8) . . ?
 O12 S11 C11 103.64(8) . . ?
 N11 S11 C11 105.42(8) . . ?
 Co N11 S11 124.62(8) . . ?
 Co N11 C12 115.12(10) . . ?
 S11 N11 C12 118.14(10) . . ?
 Co N12 C13 113.89(10) . . ?
 Co N12 C17 126.11(10) . . ?
 C13 N12 C17 120.00(13) . . ?
 S11 C11 F11 110.16(11) . . ?
 S11 C11 F12 110.67(11) . . ?
 S11 C11 F13 111.65(11) . . ?
 F11 C11 F12 108.37(12) . . ?
 F11 C11 F13 107.67(12) . . ?
 F12 C11 F13 108.20(13) . . ?
 N11 C12 C13 109.40(12) . . ?
 N12 C13 C12 117.41(13) . . ?
 N12 C13 C14 121.87(15) . . ?
 C12 C13 C14 120.71(14) . . ?
 C13 C14 C15 118.64(16) . . ?
 C14 C15 C16 119.11(16) . . ?
 C15 C16 C17 119.76(17) . . ?
 N12 C17 C16 120.61(14) . . ?
 N12 C17 C18 116.78(14) . . ?
 C16 C17 C18 122.59(16) . . ?

