data_malbac
_audit_creation_method            
 'Olex2: Jan 23 2023 09:41:20 MSC:193431937 on WIN64, Python: 3.8.6, wxWidgets: 3.1.5'
_chemical_name_common              '?'
_chemical_name_systematic          '?'
_chemical_formula_moiety           'C26 H20 Cl N2 O P Pd'
_chemical_formula_sum              'C26 H20 Cl N2 O P Pd'
_chemical_formula_weight           549.30
_chemical_melting_point            ?
_space_group_crystal_system        'triclinic'
_space_group_IT_number             2
_space_group_name_H-M_alt          'P -1'
_space_group_name_Hall             '-P 1'
loop_
  _space_group_symop_id
  _space_group_symop_operation_xyz
 1 +X,+Y,+Z
 2 -X,-Y,-Z

_cell_length_a                     10.551(2)
_cell_length_b                     14.251(3)
_cell_length_c                     9.551(2)
_cell_angle_alpha                  99.77(2)
_cell_angle_beta                   105.10(2)
_cell_angle_gamma                  104.77(2)
_cell_volume                       1297.1(5)
_cell_formula_units_Z              2
_diffrn_reflns_av_R_equivalents    0.0000
_diffrn_reflns_av_unetI/netI       0.0311
_diffrn_reflns_limit_h_max         14
_diffrn_reflns_limit_h_min         -14
_diffrn_reflns_limit_k_max         19
_diffrn_reflns_limit_k_min         -20
_diffrn_reflns_limit_l_max         5
_diffrn_reflns_limit_l_min         -13
_diffrn_reflns_number              7595
_diffrn_reflns_theta_max           30.05
_diffrn_reflns_theta_min           3.05
_diffrn_ambient_temperature        ?
_diffrn_radiation_wavelength       0.71078
_reflns_number_total               7595
_refine_diff_density_max           1.68
loop_
  _atom_site_label
  _atom_site_type_symbol
  _atom_site_fract_x
  _atom_site_fract_y
  _atom_site_fract_z
  _atom_site_U_iso_or_equiv
  _atom_site_adp_type
  _atom_site_occupancy
  _atom_site_refinement_flags_posn
  _atom_site_site_symmetry_order
  _atom_site_disorder_group
 Pd Pd 0.277356 0.170014 0.000044 0.045783 Uani 1 . 1 .
 P P 0.189346 0.2603 0.136218 0.039976 Uani 1 . 1 .
 Cl Cl 0.494823 0.271283 0.140418 0.080754 Uani 1 . 1 .
 O O 0.347372 0.082891 -0.139005 0.051196 Uani 1 . 1 .
 N1 N 0.096322 0.076411 -0.14103 0.043196 Uani 1 . 1 .
 C1 C 0.257214 0.274177 0.336379 0.046141 Uani 1 . 1 .
 C2 C 0.003253 0.204149 0.088399 0.042985 Uani 1 . 1 .
 C3 C 0.215438 0.38605 0.106739 0.046636 Uani 1 . 1 .
 C5 C -0.062996 0.244997 0.179935 0.052922 Uani 1 . 1 .
 H5 H 0.000081 0.306848 0.286283 0.087797 Uani 1 . 1 .
 C6 C -0.286056 0.135087 0.016861 0.057251 Uani 1 . 1 .
 H6 H -0.397663 0.103789 -0.022753 0.088225 Uani 1 . 1 .
 C7 C -0.220525 0.091837 -0.071501 0.054358 Uani 1 . 1 .
 H7 H -0.277362 0.026943 -0.174587 0.067085 Uani 1 . 1 .
 C8 C 0.194478 0.203238 0.402453 0.055602 Uani 1 . 1 .
 H8 H 0.096374 0.145067 0.326512 0.074692 Uani 1 . 1 .
 C9 C -0.076067 0.124657 -0.038575 0.044719 Uani 1 . 1 .
 C12 C -0.206341 0.211428 0.143756 0.058572 Uani 1 . 1 .
 H12 H -0.261116 0.23647 0.213718 0.114894 Uani 1 . 1 .
 C14 C 0.379934 0.350157 0.422613 0.058449 Uani 1 . 1 .
 H14 H 0.429729 0.398057 0.359373 0.10283 Uani 1 . 1 .
 C15 C 0.289005 0.415497 0.012886 0.09529 Uani 1 . 1 .
 H15 H 0.31973 0.354383 -0.045213 0.203112 Uani 1 . 1 .
 C16 C 0.439141 0.354221 0.572942 0.074061 Uani 1 . 1 .
 H16 H 0.534386 0.410507 0.641323 0.130231 Uani 1 . 1 .
 C17 C 0.164396 -0.107177 -0.491745 0.069991 Uani 1 . 1 .
 H17 H 0.057205 -0.108253 -0.518629 0.108137 Uani 1 . 1 .
 C18 C 0.254069 0.20871 0.553145 0.069836 Uani 1 . 1 .
 H18 H 0.207302 0.161419 0.619279 0.127031 Uani 1 . 1 .
 C19 C 0.164708 0.453705 0.175716 0.087155 Uani 1 . 1 .
 H19 H 0.109011 0.436997 0.24604 0.315708 Uani 1 . 1 .
 C20 C 0.400763 -0.054861 -0.337633 0.091816 Uani 1 . 1 .
 H20 H 0.47729 0.010925 -0.25353 0.161265 Uani 1 . 1 .
 C21 C 0.377749 0.28424 0.638939 0.073614 Uani 1 . 1 .
 H21 H 0.434775 0.288488 0.75993 0.101035 Uani 1 . 1 .
 C22 C 0.184095 0.547856 0.147188 0.098559 Uani 1 . 1 .
 H22 H 0.146481 0.614268 0.197405 0.18908 Uani 1 . 1 .
 C23 C 0.255286 0.577208 0.055155 0.084249 Uani 1 . 1 .
 H23 H 0.268725 0.654182 0.041968 0.10898 Uani 1 . 1 .
 C24 C 0.428874 -0.119122 -0.444123 0.109684 Uani 1 . 1 .
 H24 H 0.530822 -0.118108 -0.440568 0.224797 Uani 1 . 1 .
 C29 C 0.193855 -0.1704 -0.598559 0.082106 Uani 1 . 1 .
 H29 H 0.10138 -0.226824 -0.704766 0.10833 Uani 1 . 1 .
 C30 C 0.310605 0.511324 -0.010108 0.112586 Uani 1 . 1 .
 H30 H 0.333256 0.530354 -0.113865 0.317581 Uani 1 . 1 .
 N2 N 0.110769 0.010197 -0.258009 0.050341 Uani 1 . 1 .
 C31 C 0.240821 0.019782 -0.244189 0.050023 Uani 1 . 1 .
 C32 C -0.027067 0.068296 -0.144533 0.047809 Uani 1 . 1 .
 H32 H -0.104138 0.011068 -0.232788 0.073235 Uani 1 . 1 .
 C33 C 0.268197 -0.048308 -0.361287 0.055247 Uani 1 . 1 .
 C34 C 0.327544 -0.174746 -0.575413 0.086377 Uani 1 . 1 .
 H34 H 0.343591 -0.226963 -0.66473 0.133941 Uani 1 . 1 .

loop_
  _atom_site_aniso_label
  _atom_site_aniso_U_11
  _atom_site_aniso_U_22
  _atom_site_aniso_U_33
  _atom_site_aniso_U_23
  _atom_site_aniso_U_13
  _atom_site_aniso_U_12
 Pd 0.036164 0.045499 0.058891 0.008398 0.02263 0.013708
 P 0.034961 0.039199 0.049096 0.009377 0.019292 0.012387
 Cl 0.037681 0.082101 0.104228 -0.012269 0.024662 0.009444
 O 0.043575 0.049962 0.064185 0.004252 0.028701 0.016509
 N1 0.044755 0.041232 0.046756 0.008803 0.018534 0.016299
 C1 0.042775 0.044549 0.054711 0.013876 0.019493 0.014891
 C2 0.034951 0.045357 0.051624 0.009257 0.018903 0.014372
 C3 0.047392 0.042288 0.05138 0.01298 0.017359 0.013641
 C5 0.038514 0.059427 0.064168 0.007382 0.024269 0.018316
 H5 0.057014 0.092093 0.091793 -0.021889 0.002305 0.037017
 C6 0.03495 0.068866 0.070782 0.014713 0.021949 0.017811
 H6 0.038861 0.090761 0.113358 -0.025894 0.026712 0.015157
 C7 0.030811 0.063872 0.0637 0.007018 0.014436 0.013587
 H7 0.011674 0.088767 0.08578 -0.01857 0.011863 0.020807
 C8 0.059071 0.05352 0.06025 0.01986 0.024482 0.018683
 H8 0.059187 0.064762 0.094653 0.011112 0.033991 0.006494
 C9 0.033423 0.051673 0.053222 0.014196 0.017704 0.015779
 C12 0.042236 0.066729 0.074497 0.011195 0.029073 0.023799
 H12 0.078261 0.084665 0.229684 0.079626 0.098155 0.029946
 C14 0.045555 0.06334 0.058995 0.015354 0.012071 0.009356
 H14 0.065213 0.109356 0.159493 0.10304 0.053997 0.006747
 C15 0.150205 0.060686 0.11855 0.041579 0.099009 0.03658
 H15 0.396127 0.133405 0.225202 0.091001 0.23355 0.160264
 C16 0.058199 0.089004 0.059813 0.015007 0.004063 0.015215
 H16 0.042007 0.157566 0.124255 0.013801 -0.022984 -0.016164
 C17 0.084964 0.078278 0.057673 0.011506 0.029421 0.040934
 H17 0.078392 0.131947 0.103664 -0.018061 0.022388 0.053601
 C18 0.0803 0.076455 0.065667 0.033219 0.030496 0.028998
 H18 0.107882 0.13933 0.124011 0.105641 0.024936 -0.012673
 C19 0.104523 0.054863 0.139425 0.037383 0.077464 0.040002
 H19 0.481992 0.319803 0.521061 0.325834 0.454709 0.312781
 C20 0.065909 0.08818 0.114635 -0.020669 0.046876 0.024643
 H20 0.066749 0.122143 0.234939 -0.090526 0.019407 0.046823
 C21 0.075327 0.087008 0.061643 0.026036 0.015702 0.03234
 H21 0.152289 0.120927 0.028911 0.009243 -0.003079 0.080348
 C22 0.111368 0.057894 0.155559 0.040917 0.065931 0.04259
 H22 0.241855 0.109547 0.289433 0.051261 0.150608 0.110998
 C23 0.09957 0.05492 0.092837 0.033483 0.018008 0.01846
 H23 0.16158 0.060578 0.108968 0.042196 0.039886 0.031718
 C24 0.087123 0.10916 0.131235 -0.022345 0.059144 0.037812
 H24 0.092827 0.326909 0.200509 -0.098797 0.056307 0.073237
 C29 0.114586 0.082671 0.061673 0.010074 0.034744 0.050754
 H29 0.129653 0.106248 0.080875 -0.007829 0.02209 0.055569
 C30 0.174068 0.067024 0.125616 0.048052 0.087371 0.030574
 H30 0.70487 0.214756 0.296837 0.196472 0.383065 0.273342
 N2 0.04798 0.053037 0.054343 0.007767 0.024433 0.018656
 C31 0.052492 0.049889 0.059829 0.014312 0.031305 0.022507
 C32 0.03696 0.053318 0.053637 0.007553 0.01716 0.016127
 H32 0.039109 0.08242 0.078378 -0.017098 0.01281 0.01631
 C33 0.063533 0.051561 0.063351 0.013204 0.037337 0.022807
 C34 0.113361 0.080754 0.085345 0.010693 0.054611 0.047958
 H34 0.241701 0.100178 0.118983 0.028163 0.115245 0.093621

