data_1yk4_h
_audit_creation_method            
 'Olex2: Jun 27 2022 09:56:08 MSC:193231329 on WIN64, Python: 3.8.6, wxWidgets: 3.1.5'
_chemical_name_common              '?'
_chemical_name_systematic          '?'
_chemical_formula_moiety           'C252 H367 Fe N61 O86 S4, 6(H2 O)'
_chemical_formula_sum              'C252 H379 Fe N61 O92 S4'
_chemical_formula_weight           5919.28
_chemical_melting_point            ?
_space_group_crystal_system        'orthorhombic'
_space_group_IT_number             19
_space_group_name_H-M_alt          'P 21 21 21'
_space_group_name_Hall             'P 2ac 2ab'

_cell_length_a                     25.14(3)
_cell_length_b                     39.50(4)
_cell_length_c                     45.07(5)
_cell_angle_alpha                  90
_cell_angle_beta                   90
_cell_angle_gamma                  90
_cell_volume                       44756(78)
_cell_formula_units_Z              4
_diffrn_reflns_av_R_equivalents    0.0000
_diffrn_reflns_av_unetI/netI       0.0417
_diffrn_reflns_limit_h_max         34
_diffrn_reflns_limit_h_min         -34
_diffrn_reflns_limit_k_max         57
_diffrn_reflns_limit_k_min         -57
_diffrn_reflns_limit_l_max         65
_diffrn_reflns_limit_l_min         -65
_diffrn_reflns_number              104069
_diffrn_reflns_theta_max           29.13
_diffrn_reflns_theta_min           1.07
_diffrn_ambient_temperature        ?
_diffrn_radiation_wavelength       0.7301
_reflns_number_total               104069
_refine_diff_density_max           0.83





loop_
   _space_group_symop_id
   _space_group_symop_operation_xyz 
 1 +X,+Y,+Z
 2 1/2-X,-Y,1/2+Z
 3 1/2+X,1/2-Y,-Z
 4 -X,1/2+Y,1/2-Z

loop_
  _atom_site_label
  _atom_site_type_symbol
  _atom_site_fract_x
  _atom_site_fract_y
  _atom_site_fract_z
  _atom_site_U_iso_or_equiv
  _atom_site_adp_type
  _atom_site_occupancy
  _atom_site_refinement_flags_posn
  _atom_site_site_symmetry_order
  _atom_site_disorder_group
N_3 N -0.22014 0.50201 0.15972 0.0453 Uani 1 . 1 0
C_3 C -0.14213 0.49282 0.12982 0.0412 Uani 1 . 1 0
O_3 O -0.1292 0.52334 0.13012 0.0552 Uani 1 . 1 0
Ha_3 H -0.21915 0.52789 0.1576 0.0544 Uiso 0.78 R 1 1
CA_3 C -0.19899 0.48191 0.13682 0.0386 Uani 0.78 . 1 1
HAa_3 H -0.19801 0.4559 0.14442 0.0463 Uiso 0.78 R 1 1
CB_3 C -0.22953 0.48301 0.10765 0.0473 Uani 0.78 . 1 1
HBa_3 H -0.22521 0.50801 0.09762 0.0568 Uiso 0.78 R 1 1
HBb_3 H -0.21293 0.4644 0.09235 0.0568 Uiso 0.78 R 1 1
CG_3 C -0.2895 0.47538 0.11272 0.0569 Uani 0.78 . 1 1
HGa_3 H -0.2933 0.45138 0.12452 0.0683 Uiso 0.78 R 1 1
HGb_3 H -0.3064 0.49514 0.12673 0.0683 Uiso 0.78 R 1 1
CD_3 C -0.32191 0.4734 0.08309 0.0981 Uani 0.78 . 1 1
HDa_3 H -0.31512 0.4963 0.07019 0.118 Uiso 0.78 R 1 1
HDb_3 H -0.30786 0.4519 0.07003 0.118 Uiso 0.78 R 1 1
CE_3 C -0.38286 0.46931 0.08909 0.0702 Uani 0.78 . 1 1
HEa_3 H -0.38959 0.44851 0.10457 0.0842 Uiso 0.78 R 1 1
HEb_3 H -0.39858 0.49246 0.09897 0.0842 Uiso 0.78 R 1 1
NZ_3 N -0.40982 0.46245 0.06126 0.1080 Uani 0.78 . 1 1
HZa_3 H -0.4187 0.48511 0.0508 0.130 Uiso 0.78 R 1 1
HZb_3 H -0.3853 0.4481 0.0477 0.130 Uiso 0.78 R 1 1
HZc_3 H -0.4447 0.4493 0.0654 0.130 Uiso 0.78 R 1 1
