data_1yk4_h
_audit_creation_method            
 'Olex2: Jun 27 2022 09:56:08 MSC:193231329 on WIN64, Python: 3.8.6, wxWidgets: 3.1.5'
_chemical_name_common              '?'
_chemical_name_systematic          '?'
_chemical_formula_moiety           'C252 H367 Fe N61 O86 S4, 6(H2 O)'
_chemical_formula_sum              'C252 H379 Fe N61 O92 S4'
_chemical_formula_weight           5919.28
_chemical_melting_point            ?
_space_group_crystal_system        'orthorhombic'
_space_group_IT_number             19
_space_group_name_H-M_alt          'P 21 21 21'
_space_group_name_Hall             'P 2ac 2ab'

_cell_length_a                     25.14(3)
_cell_length_b                     39.50(4)
_cell_length_c                     45.07(5)
_cell_angle_alpha                  90
_cell_angle_beta                   90
_cell_angle_gamma                  90
_cell_volume                       44756(78)
_cell_formula_units_Z              4
_diffrn_reflns_av_R_equivalents    0.0000
_diffrn_reflns_av_unetI/netI       0.0417
_diffrn_reflns_limit_h_max         34
_diffrn_reflns_limit_h_min         -34
_diffrn_reflns_limit_k_max         57
_diffrn_reflns_limit_k_min         -57
_diffrn_reflns_limit_l_max         65
_diffrn_reflns_limit_l_min         -65
_diffrn_reflns_number              104069
_diffrn_reflns_theta_max           29.13
_diffrn_reflns_theta_min           1.07
_diffrn_ambient_temperature        ?
_diffrn_radiation_wavelength       0.7301
_reflns_number_total               104069
_refine_diff_density_max           0.83





loop_
   _space_group_symop_id
   _space_group_symop_operation_xyz 
 1 +X,+Y,+Z
 2 1/2-X,-Y,1/2+Z
 3 1/2+X,1/2-Y,-Z
 4 -X,1/2+Y,1/2-Z

loop_
  _atom_site_label
  _atom_site_type_symbol
  _atom_site_fract_x
  _atom_site_fract_y
  _atom_site_fract_z
  _atom_site_U_iso_or_equiv
  _atom_site_adp_type
  _atom_site_occupancy
  _atom_site_refinement_flags_posn
  _atom_site_site_symmetry_order
  _atom_site_disorder_group
N_3 N -0.22014 0.50201 0.15972 0.0453 Uani 1 . 1 0
C_3 C -0.14213 0.49282 0.12982 0.0412 Uani 1 . 1 0
O_3 O -0.1292 0.52334 0.13012 0.0552 Uani 1 . 1 0
Hb_3 H -0.2192 0.52781 0.15692 0.0544 Uiso 0.22 R 1 2
C1_3 C -0.1934 0.4748 0.1322 0.0389 Uani 0.22 . 1 2
H1_3 H -0.191 0.4482 0.1381 0.0467 Uiso 0.22 R 1 2
C2_3 C -0.2412 0.4849 0.1142 0.0474 Uani 0.22 . 1 2
H2a_3 H -0.2452 0.5111 0.1215 0.0569 Uiso 0.22 R 1 2
H2b_3 H -0.2227 0.487 0.0924 0.0569 Uiso 0.22 R 1 2
C3_3 C -0.2966 0.4784 0.105 0.0571 Uani 0.22 . 1 2
H3a_3 H -0.3046 0.4512 0.106 0.0686 Uiso 0.22 R 1 2
H3b_3 H -0.3238 0.4911 0.1202 0.0686 Uiso 0.22 R 1 2
C4_3 C -0.3057 0.4916 0.0727 0.0979 Uani 0.22 . 1 2
H4a_3 H -0.2904 0.5172 0.0694 0.117 Uiso 0.22 R 1 2
H4b_3 H -0.2896 0.4746 0.0559 0.117 Uiso 0.22 R 1 2
C5_3 C -0.3678 0.4905 0.0742 0.090 Uani 0.22 . 1 2
H5a_3 H -0.3833 0.4905 0.0516 0.108 Uiso 0.22 R 1 2
H5b_3 H -0.3796 0.4666 0.0844 0.108 Uiso 0.22 R 1 2
N1_3 N -0.3929 0.5179 0.09046 0.054 Uani 0.22 . 1 2
H1a_3 H -0.3639 0.5323 0.1008 0.065 Uiso 0.22 R 1 2
H1b_3 H -0.414 0.533 0.0759 0.065 Uiso 0.22 R 1 2
H1c_3 H -0.418 0.508 0.1063 0.065 Uiso 0.22 R 1 2
