data_ZP2
_audit_creation_method            
 'Olex2: Apr 30 2024 10:23:06 MSC:193933523 on WIN64, Python: 3.8.6, wxWidgets: 3.2.2'
_chemical_name_common              '?'
_chemical_name_systematic          '?'
_chemical_formula_moiety           'C8 H11 F2 N3 O'
_chemical_formula_sum              'C8 H11 F2 N3 O'
_chemical_formula_weight           406.39
_chemical_melting_point            ?
_space_group_crystal_system        'orthorhombic'
_space_group_IT_number             33
_space_group_name_H-M_alt          'P n a 21'
_space_group_name_Hall             'P 2c -2n'
loop_
  _space_group_symop_id
  _space_group_symop_operation_xyz
 1 +X,+Y,+Z
 2 -X,-Y,1/2+Z
 3 1/2-X,1/2+Y,1/2+Z
 4 1/2+X,1/2-Y,+Z

_cell_length_a                     15.0815(4)
_cell_length_b                     24.6147(6)
_cell_length_c                     5.0146(1)
_cell_angle_alpha                  90
_cell_angle_beta                   90
_cell_angle_gamma                  90
_cell_volume                       1861.55(8)
_cell_formula_units_Z              8
_exptl_crystal_size_max            0.52
_exptl_crystal_size_mid            0.08
_exptl_crystal_size_min            0.04
_diffrn_reflns_av_R_equivalents    0.0769
_diffrn_reflns_av_unetI/netI       0.0545
_diffrn_reflns_limit_h_max         21
_diffrn_reflns_limit_h_min         -21
_diffrn_reflns_limit_k_max         35
_diffrn_reflns_limit_k_min         -34
_diffrn_reflns_limit_l_max         7
_diffrn_reflns_limit_l_min         -7
_diffrn_reflns_number              23906
_diffrn_reflns_theta_max           30.00
_diffrn_reflns_theta_min           0.83
_diffrn_ambient_temperature        120.15
_diffrn_radiation_wavelength       0.71073
_reflns_number_total               5404
_refine_diff_density_max           0.37
loop_
  _atom_site_label
  _atom_site_type_symbol
  _atom_site_fract_x
  _atom_site_fract_y
  _atom_site_fract_z
  _atom_site_U_iso_or_equiv
  _atom_site_adp_type
  _atom_site_occupancy
  _atom_site_refinement_flags_posn
  _atom_site_site_symmetry_order
  _atom_site_disorder_group
 F11 F 0.901484 0.97033 0.459232 0.024543 Uani 1 . 1 1
 F12 F 0.841476 1.106012 1.097219 0.024417 Uani 1 . 1 1
 F21 F 0.717017 0.709327 0.311014 0.027777 Uani 1 . 1 2
 F22 F 0.676189 0.830369 1.030964 0.024593 Uani 1 . 1 2
 O11 O 0.981072 1.160418 0.889617 0.021173 Uani 1 . 1 1
 O21 O 0.833862 0.875727 0.882785 0.02328 Uani 1 . 1 2
 N11 N 0.999382 1.094937 0.573181 0.018847 Uani 1 . 1 1
 N12 N 0.981911 1.045922 0.462493 0.019933 Uani 1 . 1 1
 N13 N 0.800271 0.999206 0.87365 0.02328 Uani 1 . 1 1
 N21 N 0.847297 0.814113 0.547897 0.021137 Uani 1 . 1 2
 N22 N 0.819363 0.771656 0.398091 0.021967 Uani 1 . 1 2
 N23 N 0.61215 0.738129 0.717597 0.022133 Uani 1 . 1 2
 C11 C 0.918886 1.018882 0.568235 0.01887 Uani 1 . 1 1
 C12 C 0.863577 1.03422 0.789828 0.018143 Uani 1 . 1 1
 C13 C 0.883926 1.084856 0.885767 0.0186 Uani 1 . 1 1
 C14 C 0.956377 1.116368 0.78699 0.016853 Uani 1 . 1 1
 C15 C 0.733097 1.011413 1.072307 0.022903 Uani 1 . 1 1
 C16 C 0.676327 0.962006 1.120848 0.030367 Uani 1 . 1 1
 C17 C 0.602865 0.97134 1.320669 0.032793 Uani 1 . 1 1
 C18 C 0.548417 0.92106 1.372464 0.0612 Uani 1 . 1 1
 C21 C 0.744928 0.750809 0.463634 0.02041 Uani 1 . 1 2
 C22 C 0.687185 0.766774 0.678101 0.01818 Uani 1 . 1 2
 C23 C 0.720274 0.809995 0.818852 0.01808 Uani 1 . 1 2
 C24 C 0.802684 0.835996 0.757676 0.018727 Uani 1 . 1 2
 C25 C 0.538963 0.754066 0.892214 0.021143 Uani 1 . 1 2
 C26 C 0.486081 0.801769 0.783761 0.023223 Uani 1 . 1 2
 C27 C 0.40381 0.813374 0.950264 0.025487 Uani 1 . 1 2
 C28 C 0.351567 0.862261 0.849096 0.035887 Uani 1 . 1 2
 H11 H 1.045437 1.111237 0.507766 0.01921 Uiso 1 . 1 1
 H13 H 0.808173 0.966742 0.834234 0.02922 Uiso 1 . 1 1
 H15a H 0.695256 1.040973 0.998074 0.03645 Uiso 1 . 1 1
 H15b H 0.759251 1.021783 1.228876 0.03386 Uiso 1 . 1 1
 H16a H 0.718981 0.930972 1.199315 0.05069 Uiso 1 . 1 1
 H16b H 0.654748 0.950906 0.953158 0.04325 Uiso 1 . 1 1
 H17a H 0.563476 0.999466 1.237112 0.04417 Uiso 1 . 1 1
 H17b H 0.625338 0.985328 1.483819 0.04309 Uiso 1 . 1 1
 H18a H 0.529296 0.907416 1.233584 0.07878 Uiso 1 . 1 1
 H18b H 0.49906 0.928317 1.501009 0.05083 Uiso 1 . 1 1
 H18c H 0.581805 0.887645 1.415498 0.09202 Uiso 1 . 1 1
 H21 H 0.897761 0.827349 0.496525 0.0295 Uiso 1 . 1 2
 H23 H 0.599786 0.713643 0.614108 0.02133 Uiso 1 . 1 2
 H25a H 0.500664 0.721594 0.912401 0.02856 Uiso 1 . 1 2
 H25b H 0.562563 0.760416 1.070287 0.01788 Uiso 1 . 1 2
 H26a H 0.467734 0.792954 0.599657 0.03095 Uiso 1 . 1 2
 H26b H 0.527316 0.834305 0.782292 0.0302 Uiso 1 . 1 2
 H27a H 0.421013 0.819768 1.14486 0.02747 Uiso 1 . 1 2
 H27b H 0.364898 0.779558 0.95825 0.02622 Uiso 1 . 1 2
 H28a H 0.297709 0.867434 0.957184 0.04268 Uiso 1 . 1 2
 H28b H 0.333778 0.858559 0.669354 0.0481 Uiso 1 . 1 2
 H28c H 0.389935 0.896873 0.854026 0.03678 Uiso 1 . 1 2

loop_
  _atom_site_aniso_label
  _atom_site_aniso_U_11
  _atom_site_aniso_U_22
  _atom_site_aniso_U_33
  _atom_site_aniso_U_23
  _atom_site_aniso_U_13
  _atom_site_aniso_U_12
 F11 0.02658 0.01821 0.02884 -0.00669 0.00386 -0.00413
 F12 0.02133 0.01956 0.03236 -0.00744 0.00848 -0.00072
 F21 0.02481 0.02489 0.03363 -0.01229 0.00332 -0.00631
 F22 0.02062 0.02362 0.02954 -0.00809 0.00423 -0.00214
 O11 0.0163 0.01505 0.03217 -0.0025 -0.00047 -0.00036
 O21 0.01784 0.01798 0.03402 -0.00489 -0.0018 -0.00176
 N11 0.01738 0.01613 0.02303 0.00129 0.00173 -0.00204
 N12 0.02122 0.01634 0.02224 -0.00009 0.0019 0.00086
 N13 0.02036 0.01479 0.03469 -0.0045 0.00854 -0.00343
 N21 0.01538 0.01842 0.02961 -0.00195 0.00157 -0.00304
 N22 0.0199 0.01939 0.02661 -0.00403 0.00064 -0.0005
 N23 0.01838 0.01756 0.03046 -0.00501 0.00233 -0.00485
 C11 0.01992 0.01536 0.02133 -0.00084 -0.00062 -0.00076
 C12 0.01508 0.01633 0.02302 -0.00056 0.00069 0.0005
 C13 0.01488 0.01681 0.02411 -0.00033 0.00236 0.00158
 C14 0.01361 0.01442 0.02253 0.0008 -0.00049 0.00273
 C15 0.01954 0.02022 0.02895 -0.00287 0.00631 -0.00224
 C16 0.03206 0.02276 0.03628 -0.00362 0.0133 -0.00849
 C17 0.03019 0.02558 0.04261 0.00218 0.01387 -0.00289
 C18 0.06441 0.03339 0.0858 -0.00588 0.0502 -0.01777
 C21 0.02013 0.01673 0.02437 -0.00327 -0.00153 -0.00042
 C22 0.01488 0.01539 0.02427 0.00113 -0.00211 0.00056
 C23 0.01529 0.01675 0.0222 -0.0013 0.00107 0.00173
 C24 0.01564 0.01513 0.02541 0.00018 -0.00319 0.00091
 C25 0.01744 0.0202 0.02579 0.00292 0.0008 -0.00159
 C26 0.01781 0.02449 0.02737 0.00679 0.00121 -0.00057
 C27 0.0192 0.02447 0.03279 0.00672 0.00223 0.00118
 C28 0.0243 0.03277 0.05059 0.01224 0.00278 0.00819

