data_Co110
_audit_creation_method            
 'Olex2: 2025.01.22 svn.rc7346086 MSC:194234436 on WIN64, Python: 3.8.10, wxWidgets: 3.2.5 for OlexSys'
_chemical_name_common              '?'
_chemical_name_systematic          '?'
_chemical_formula_moiety           'C16 H16 Cl F6 N4 O4 S2'
_chemical_formula_sum              'C16 H16 Cl F6 N4 O4 S2'
_chemical_formula_weight           541.91
_chemical_melting_point            ?
_space_group_crystal_system        'triclinic'
_space_group_IT_number             2
_space_group_name_H-M_alt          'P -1'
_space_group_name_Hall             '-P 1'
loop_
  _space_group_symop_id
  _space_group_symop_operation_xyz
 1 +X,+Y,+Z
 2 -X,-Y,-Z

_cell_length_a                     7.9999(2)
_cell_length_b                     9.3718(3)
_cell_length_c                     14.7362(5)
_cell_angle_alpha                  82.625(1)
_cell_angle_beta                   81.527(1)
_cell_angle_gamma                  81.726(1)
_cell_volume                       1074.89(6)
_cell_formula_units_Z              2
_diffrn_reflns_av_R_equivalents    0.0290
_diffrn_reflns_av_unetI/netI       0.0369
_diffrn_reflns_limit_h_max         10
_diffrn_reflns_limit_h_min         -9
_diffrn_reflns_limit_k_max         12
_diffrn_reflns_limit_k_min         -12
_diffrn_reflns_limit_l_max         19
_diffrn_reflns_limit_l_min         -19
_diffrn_reflns_number              11963
_diffrn_reflns_theta_max           27.48
_diffrn_reflns_theta_min           1.41
_diffrn_ambient_temperature        ?
_diffrn_radiation_wavelength       0.71073
_reflns_number_total               4897
loop_
  _atom_site_label
  _atom_site_type_symbol
  _atom_site_fract_x
  _atom_site_fract_y
  _atom_site_fract_z
  _atom_site_U_iso_or_equiv
  _atom_site_adp_type
  _atom_site_occupancy
  _atom_site_refinement_flags_posn
  _atom_site_site_symmetry_order
  _atom_site_disorder_group
 Co Co 0.09892 0.20544 0.24465 0.015579 Uani 1 . 1 .
 S21 S 0.46587 0.03684 0.19103 0.017597 Uani 1 . 1 .
 F21 F 0.4124 -0.19766 0.1242 0.039448 Uani 1 . 1 .
 F22 F 0.59649 -0.23719 0.22086 0.039426 Uani 1 . 1 .
 F23 F 0.32913 -0.19334 0.26978 0.032367 Uani 1 . 1 .
 O21 O 0.60667 0.05366 0.11929 0.023843 Uani 1 . 1 .
 O22 O 0.48135 0.06055 0.28342 0.02548 Uani 1 . 1 .
 N21 N 0.29064 0.1121 0.16349 0.0208 Uani 1 . 1 .
 N22 N 0.00158 0.26831 0.12326 0.017603 Uani 1 . 1 .
 C21 C 0.45037 -0.15837 0.20232 0.024303 Uani 1 . 1 .
 C22 C 0.27199 0.13278 0.0643 0.035121 Uani 1 . 1 .
 H22A H 0.36458 0.18158 0.03003 0.042141 Uani 1 . 1 .
 H22B H 0.27779 0.03908 0.04186 0.042141 Uani 1 . 1 .
 C23 C 0.10402 0.22183 0.04888 0.021929 Uani 1 . 1 .
 C24 C 0.05879 0.25248 -0.03938 0.029549 Uani 1 . 1 .
 H24 H 0.13093 0.21804 -0.08951 0.03546 Uani 1 . 1 .
 C25 C -0.0957 0.33529 -0.05168 0.031193 Uani 1 . 1 .
 H25 H -0.12831 0.3582 -0.11037 0.037429 Uani 1 . 1 .
 C26 C -0.20098 0.38356 0.02446 0.029759 Uani 1 . 1 .
 H26 H -0.3051 0.43929 0.01714 0.03571 Uani 1 . 1 .
 C27 C -0.1512 0.34881 0.11167 0.022576 Uani 1 . 1 .
 C28 C -0.26036 0.39423 0.19727 0.033684 Uani 1 . 1 .
 H28A H -0.28607 0.30969 0.23821 0.050531 Uani 1 . 1 .
 H28B H -0.20063 0.4524 0.22736 0.050531 Uani 1 . 1 .
 H28C H -0.36439 0.44973 0.18113 0.050531 Uani 1 . 1 .
 S11 S 0.19328 0.47445 0.32335 0.018273 Uani 1 . 1 .
 F11 F 0.30005 0.41636 0.48616 0.030323 Uani 1 . 1 .
 F12 F 0.45741 0.54592 0.38626 0.040103 Uani 1 . 1 .
 F13 F 0.46955 0.31706 0.37815 0.030622 Uani 1 . 1 .
 O11 O 0.09089 0.59904 0.35914 0.025536 Uani 1 . 1 .
 O12 O 0.28304 0.48773 0.23125 0.023234 Uani 1 . 1 .
 N11 N 0.10194 0.3348 0.33928 0.018052 Uani 1 . 1 .
 N12 N -0.05978 0.10747 0.34685 0.017576 Uani 1 . 1 .
 C11 C 0.36514 0.43619 0.39719 0.022791 Uani 1 . 1 .
 C12 C -0.02821 0.31833 0.42092 0.022245 Uani 1 . 1 .
 H12A H 0.02258 0.31887 0.47671 0.02669 Uani 1 . 1 .
 H12B H -0.11899 0.39877 0.41796 0.02669 Uani 1 . 1 .
 C13 C -0.09943 0.17788 0.42321 0.019672 Uani 1 . 1 .
 C14 C -0.20402 0.12508 0.50027 0.024585 Uani 1 . 1 .
 H14 H -0.2294 0.17497 0.55223 0.0295 Uani 1 . 1 .
 C15 C -0.26962 -0.00279 0.49835 0.02892 Uani 1 . 1 .
 H15 H -0.33988 -0.04031 0.54913 0.0347 Uani 1 . 1 .
 C16 C -0.22947 -0.0748 0.41967 0.027578 Uani 1 . 1 .
 H16 H -0.27291 -0.16102 0.41761 0.033089 Uani 1 . 1 .
 C17 C -0.12489 -0.01823 0.34442 0.021433 Uani 1 . 1 .
 C18 C -0.07968 -0.0875 0.25617 0.025091 Uani 1 . 1 .
 H18A H -0.14263 -0.03283 0.20973 0.03764 Uani 1 . 1 .
 H18C H 0.04018 -0.08896 0.23594 0.03764 Uani 1 . 1 .
 H18B H -0.10771 -0.185 0.26639 0.03764 Uani 1 . 1 .

loop_
  _atom_site_aniso_label
  _atom_site_aniso_U_11
  _atom_site_aniso_U_22
  _atom_site_aniso_U_33
  _atom_site_aniso_U_23
  _atom_site_aniso_U_13
  _atom_site_aniso_U_12
 Co 0.01564 0.01882 0.0115 -0.00481 -0.00034 0.00174
 S21 0.01585 0.02008 0.01632 -0.00578 -0.00118 0.00194
 F21 0.05055 0.0357 0.03667 -0.0172 0.00121 -0.01616
 F22 0.02131 0.02328 0.0694 -0.00392 -0.00137 0.00581
 F23 0.02549 0.03062 0.03582 0.0041 0.00634 -0.00374
 O21 0.01778 0.02652 0.02577 -0.00463 0.00153 -0.00085
 O22 0.02593 0.0306 0.01991 -0.0088 -0.00717 0.00603
 N21 0.01907 0.02868 0.01263 -0.00661 -0.00083 0.00632
 N22 0.01741 0.01993 0.01526 -0.00294 -0.00302 0.00012
 C21 0.01885 0.02415 0.02819 -0.00467 0.00134 0.00009
 C22 0.02966 0.05816 0.01292 -0.00946 -0.00399 0.01608
 H22A 0.04214 0.04214 0.04214 -0.00461 -0.00553 -0.00537
 H22B 0.04214 0.04214 0.04214 -0.00461 -0.00553 -0.00537
 C23 0.02216 0.02738 0.01607 -0.00406 -0.003 -0.00056
 C24 0.03327 0.03942 0.01552 -0.00416 -0.00322 -0.00212
 H24 0.03546 0.03546 0.03546 -0.00388 -0.00466 -0.00452
 C25 0.0357 0.03783 0.02175 0.00549 -0.0138 -0.0079
 H25 0.03743 0.03743 0.03743 -0.0041 -0.00492 -0.00477
 C26 0.02582 0.02938 0.0341 0.00337 -0.01396 0.00058
 H26 0.03571 0.03571 0.03571 -0.00391 -0.00469 -0.00455
 C27 0.02001 0.02139 0.02573 0.00017 -0.00463 -0.00141
 C28 0.02439 0.03902 0.03272 -0.00597 -0.0029 0.01341
 H28A 0.05053 0.05053 0.05053 -0.00553 -0.00663 -0.00644
 H28B 0.05053 0.05053 0.05053 -0.00553 -0.00663 -0.00644
 H28C 0.05053 0.05053 0.05053 -0.00553 -0.00663 -0.00644
 S11 0.02125 0.01817 0.01538 -0.00332 -0.00392 0.00042
 F11 0.03643 0.03644 0.01787 -0.00649 -0.00793 0.00373
 F12 0.04693 0.03497 0.04592 0.00499 -0.02558 -0.01882
 F13 0.02594 0.03402 0.03059 -0.00812 -0.00683 0.00787
 O11 0.03061 0.01857 0.02634 -0.00472 -0.00468 0.00349
 O12 0.02561 0.02642 0.01698 -0.00049 -0.00243 -0.00305
 N11 0.01935 0.02094 0.01363 -0.00557 0.00047 -0.0012
 N12 0.01624 0.02015 0.01575 -0.00195 -0.00322 0.00079
 C11 0.02619 0.02239 0.02061 -0.00311 -0.00619 -0.00197
 C12 0.02283 0.02537 0.01726 -0.00849 0.00374 0.00016
 H12A 0.02669 0.02669 0.02669 -0.00292 -0.00351 -0.0034
 H12B 0.02669 0.02669 0.02669 -0.00292 -0.00351 -0.0034
 C13 0.01598 0.02505 0.01692 -0.00327 -0.00236 0.00203
 C14 0.02034 0.03529 0.01541 -0.0007 -0.0011 0.00243
 H14 0.0295 0.0295 0.0295 -0.00323 -0.00387 -0.00376
 C15 0.01943 0.04168 0.02267 0.00922 -0.00258 -0.00543
 H15 0.0347 0.0347 0.0347 -0.0038 -0.00456 -0.00442
 C16 0.02365 0.03047 0.02946 0.00694 -0.01072 -0.00797
 H16 0.03309 0.03309 0.03309 -0.00362 -0.00435 -0.00422
 C17 0.01702 0.02381 0.02391 0.00125 -0.00936 -0.00068
 C18 0.02463 0.02339 0.02962 -0.00526 -0.0099 -0.0024
 H18A 0.03764 0.03764 0.03764 -0.00412 -0.00494 -0.0048
 H18C 0.03764 0.03764 0.03764 -0.00412 -0.00494 -0.0048
 H18B 0.03764 0.03764 0.03764 -0.00412 -0.00494 -0.0048

