data_fk_03427_intdb_v128
_audit_creation_method            
 'Olex2: 2024.02.16 svn.r378c4104 MSC:192930153 on WIN64, Python: 3.8.10, wxWidgets: 3.0.4 for OlexSys'
_chemical_name_common              '?'
_chemical_name_systematic          '?'
_chemical_formula_moiety           'C3 H7 N O2 S'
_chemical_formula_sum              'C3 H7 N O2 S'
_chemical_formula_weight           121.16
_chemical_melting_point            ?
_space_group_crystal_system        'orthorhombic'
_space_group_IT_number             19
_space_group_name_H-M_alt          'P 21 21 21'
_space_group_name_Hall             'P 2ac 2ab'
loop_
  _space_group_symop_id
  _space_group_symop_operation_xyz
 1 +X,+Y,+Z
 2 1/2-X,-Y,1/2+Z
 3 1/2+X,1/2-Y,-Z
 4 -X,1/2+Y,1/2-Z

_cell_length_a                     5.4182(1)
_cell_length_b                     8.1503(1)
_cell_length_c                     11.9833(2)
_cell_angle_alpha                  90
_cell_angle_beta                   90
_cell_angle_gamma                  90
_cell_volume                       529.182(15)
_cell_formula_units_Z              4
_diffrn_reflns_av_R_equivalents    0.0154
_diffrn_reflns_av_unetI/netI       0.0058
_diffrn_reflns_limit_h_max         8
_diffrn_reflns_limit_h_min         -9
_diffrn_reflns_limit_k_max         12
_diffrn_reflns_limit_k_min         -14
_diffrn_reflns_limit_l_max         18
_diffrn_reflns_limit_l_min         -20
_diffrn_reflns_number              44562
_diffrn_reflns_theta_max           38.61
_diffrn_reflns_theta_min           2.50
_diffrn_ambient_temperature        ?
_diffrn_radiation_wavelength       0.71073
_reflns_number_total               2942
_refine_diff_density_max           0.39
loop_
  _atom_site_label
  _atom_site_type_symbol
  _atom_site_fract_x
  _atom_site_fract_y
  _atom_site_fract_z
  _atom_site_U_iso_or_equiv
  _atom_site_adp_type
  _atom_site_occupancy
  _atom_site_refinement_flags_posn
  _atom_site_site_symmetry_order
  _atom_site_disorder_group
 S S 0.11371 0.414505 0.523066 0.015505 Uani 1 . 1 .
 O O -0.229855 0.511666 0.259036 0.018552 Uani 1 . 1 .
 O1 O -0.207231 0.718906 0.380062 0.012913 Uani 1 . 1 .
 N N 0.284709 0.736182 0.374833 0.010526 Uani 1 . 1 .
 C1 C 0.167603 0.590324 0.32276 0.009558 Uani 1 . 1 .
 C2 C -0.113956 0.608472 0.319851 0.009814 Uani 1 . 1 .
 C3 C 0.243172 0.433793 0.383616 0.013098 Uani 1 . 1 .
 H1 H 0.232522 0.581099 0.239808 0.025656 Uani 1 . 1 .
 H3a H 0.442568 0.430903 0.393198 0.037323 Uani 1 . 1 .
 H3b H 0.180634 0.331686 0.334732 0.042997 Uani 1 . 1 .
 H H -0.093986 0.356597 0.493114 0.074604 Uani 1 . 1 .
 Ha H 0.235896 0.838882 0.334089 0.031202 Uani 1 . 1 .
 Hb H 0.238211 0.744661 0.455529 0.034797 Uani 1 . 1 .
 Hc H 0.470108 0.728637 0.370207 0.033287 Uani 1 . 1 .

loop_
  _atom_site_aniso_label
  _atom_site_aniso_U_11
  _atom_site_aniso_U_22
  _atom_site_aniso_U_33
  _atom_site_aniso_U_23
  _atom_site_aniso_U_13
  _atom_site_aniso_U_12
 S 0.021076 0.013064 0.012374 0.003201 -0.000158 -0.002097
 O 0.012592 0.020269 0.022794 -0.010809 -0.002338 -0.001645
 O1 0.007794 0.015515 0.01543 -0.004644 -0.000491 0.001844
 N 0.007568 0.011852 0.012157 0.001163 -0.000069 0.000023
 C1 0.008331 0.011237 0.009106 -0.000034 0.000767 0.001213
 C2 0.007629 0.011584 0.01023 -0.001451 -0.000419 0.000308
 C3 0.013333 0.011543 0.014417 0.00077 0.00049 0.002958
 H1 0.022584 0.034267 0.020117 0.01106 0.010198 0.003549
 H3a 0.024017 0.039152 0.0488 -0.00001 -0.002937 0.003078
 H3b 0.073999 0.022235 0.032758 -0.010409 -0.01199 0.000067
 H 0.059085 0.111594 0.053134 0.000176 0.010249 -0.021305
 Ha 0.03732 0.023455 0.032832 -0.000319 -0.000256 -0.002496
 Hb 0.052954 0.035489 0.015948 -0.000211 -0.005019 -0.006703
 Hc 0.026591 0.03241 0.040861 -0.002909 0.002411 0.003045

