data_sucrose
_audit_creation_method            
 'Olex2: 2021.08.20 svn.r13c46975 MSC:192930037 on WIN64, Python: 3.8.6, wxWidgets: 3.0.4 for OlexSys'
_chemical_name_common              '?'
_chemical_name_systematic          '?'
_chemical_formula_moiety           'C12 H22 O11'
_chemical_formula_sum              'C12 H22 O11'
_chemical_formula_weight           342.30
_chemical_melting_point            ?
_space_group_crystal_system        'monoclinic'
_space_group_IT_number             4
_space_group_name_H-M_alt          'P 1 21 1'
_space_group_name_Hall             'P 2yb'
loop_
  _space_group_symop_id
  _space_group_symop_operation_xyz
 1 +X,+Y,+Z
 2 -X,1/2+Y,-Z

_cell_length_a                     7.7727(9)
_cell_length_b                     8.7216(11)
_cell_length_c                     10.8637(11)
_cell_angle_alpha                  90
_cell_angle_beta                   102.983(11)
_cell_angle_gamma                  90
_cell_volume                       717.63(15)
_cell_formula_units_Z              2
_diffrn_reflns_av_R_equivalents    0.0339
_diffrn_reflns_av_unetI/netI       0.0306
_diffrn_reflns_limit_h_max         10
_diffrn_reflns_limit_h_min         -10
_diffrn_reflns_limit_k_max         9
_diffrn_reflns_limit_k_min         -11
_diffrn_reflns_limit_l_max         14
_diffrn_reflns_limit_l_min         -14
_diffrn_reflns_number              13618
_diffrn_reflns_theta_max           29.21
_diffrn_reflns_theta_min           2.34
_diffrn_ambient_temperature        ?
_diffrn_radiation_wavelength       0.71073
_reflns_number_total               3318
_refine_diff_density_max           0.12
loop_
  _atom_site_label
  _atom_site_type_symbol
  _atom_site_fract_x
  _atom_site_fract_y
  _atom_site_fract_z
  _atom_site_U_iso_or_equiv
  _atom_site_adp_type
  _atom_site_occupancy
  _atom_site_refinement_flags_posn
  _atom_site_site_symmetry_order
  _atom_site_disorder_group
 O1 O -0.13143(10) 0.93495(10) 0.87713(7) 0.0214(2) Uani 1 . 1 .
 O2 O -0.21419(14) 0.78922(13) 1.08137(8) 0.0347(3) Uani 1 . 1 .
 H2 H -0.220(3) 0.907(3) 1.100(3) 0.115(12) Uani 1 . 1 .
 O3 O -0.14319(16) 0.51957(13) 0.84867(11) 0.0431(3) Uani 1 . 1 .
 H3 H -0.070(4) 0.439(4) 0.829(3) 0.127(13) Uani 1 . 1 .
 O4 O 0.20280(15) 0.58615(13) 0.80827(9) 0.0364(3) Uani 1 . 1 .
 H4 H 0.244(2) 0.569(3) 0.730(2) 0.075(9) Uani 1 . 1 .
 O5 O 0.24745(13) 0.89831(13) 0.72948(9) 0.0266(2) Uani 1 . 1 .
 H5 H 0.344(3) 0.967(3) 0.7717(19) 0.061(7) Uani 1 . 1 .
 O6 O -0.18430(9) 1.23907(11) 0.71194(7) 0.0215(2) Uani 1 . 1 .
 O7 O -0.45921(13) 1.09607(13) 0.82653(9) 0.0333(3) Uani 1 . 1 .
 H7 H -0.330(3) 1.055(4) 0.852(2) 0.085(10) Uani 1 . 1 .
 O8 O -0.58918(11) 1.23588(13) 0.47861(9) 0.0286(2) Uani 1 . 1 .
 H8 H -0.696(3) 1.180(3) 0.4845(16) 0.055(7) Uani 1 . 1 .
 O9 O -0.29552(13) 1.01617(12) 0.42620(9) 0.0248(2) Uani 1 . 1 .
 H9 H -0.324(3) 0.929(3) 0.467(2) 0.059(7) Uani 1 . 1 .
 O10 O 0.12099(13) 1.09837(13) 0.53027(9) 0.0289(3) Uani 1 . 1 .
 H10 H 0.156(3) 1.012(3) 0.5828(19) 0.067(8) Uani 1 . 1 .
 O11 O -0.10835(9) 0.98733(9) 0.67145(6) 0.01814(19) Uani 1 . 1 .
 C1 C -0.20471(16) 0.78254(16) 0.85897(11) 0.0219(3) Uani 1 . 1 .
 H1 H -0.2929(18) 0.7685(19) 0.7617(11) 0.035(4) Uani 1 . 1 .
 C2 C -0.31598(19) 0.7636(2) 0.95700(12) 0.0288(3) Uani 1 . 1 .
 H2a H -0.365(3) 0.647(2) 0.9505(19) 0.068(6) Uani 1 . 1 .
 H2b H -0.433(2) 0.851(2) 0.9354(13) 0.040(5) Uani 1 . 1 .
 C3 C -0.05769(17) 0.66288(16) 0.87416(11) 0.0238(3) Uani 1 . 1 .
 H3a H 0.0228(18) 0.666(2) 0.9716(12) 0.047(5) Uani 1 . 1 .
 C4 C 0.06421(16) 0.69756(16) 0.78532(11) 0.0227(3) Uani 1 . 1 .
 H4a H -0.0114(17) 0.685(2) 0.6872(13) 0.042(5) Uani 1 . 1 .
 C5 C 0.13592(16) 0.85942(15) 0.81243(11) 0.0200(3) Uani 1 . 1 .
 H5a H 0.2100(18) 0.8633(19) 0.9117(13) 0.041(5) Uani 1 . 1 .
 C6 C -0.01480(15) 0.97618(16) 0.79978(10) 0.0182(3) Uani 1 . 1 .
 H6 H 0.0338(19) 1.089(2) 0.8342(13) 0.037(4) Uani 1 . 1 .
 C7 C -0.13090(14) 1.14132(14) 0.62430(9) 0.0165(3) Uani 1 . 1 .
 C8 C 0.04380(16) 1.20294(18) 0.60298(12) 0.0231(3) Uani 1 . 1 .
 H8a H 0.1313(16) 1.224(3) 0.6925(14) 0.057(6) Uani 1 . 1 .
 H8b H 0.020(2) 1.314(2) 0.5533(14) 0.044(5) Uani 1 . 1 .
 C9 C -0.28558(15) 1.14286(15) 0.50717(10) 0.0175(3) Uani 1 . 1 .
 H9a H -0.2688(16) 1.244(2) 0.4525(12) 0.033(4) Uani 1 . 1 .
 C10 C -0.44507(15) 1.16731(16) 0.56485(10) 0.0193(3) Uani 1 . 1 .
 H10a H -0.4858(19) 1.0581(19) 0.5995(14) 0.040(4) Uani 1 . 1 .
 C11 C -0.37141(15) 1.27266(17) 0.67625(11) 0.0203(3) Uani 1 . 1 .
 H11 H -0.383(2) 1.393(2) 0.6478(14) 0.044(5) Uani 1 . 1 .
 C12 C -0.45340(18) 1.25205(18) 0.78937(12) 0.0283(3) Uani 1 . 1 .
 H12a H -0.5937(18) 1.293(2) 0.7616(14) 0.054(6) Uani 1 . 1 .
 H12b H -0.381(2) 1.323(3) 0.8688(14) 0.070(7) Uani 1 . 1 .

loop_
  _atom_site_aniso_label
  _atom_site_aniso_U_11
  _atom_site_aniso_U_22
  _atom_site_aniso_U_33
  _atom_site_aniso_U_23
  _atom_site_aniso_U_13
  _atom_site_aniso_U_12
 O1 0.0254(4) 0.0196(6) 0.0211(4) 0.0001(4) 0.0093(3) 0.0008(4)
 O2 0.0423(6) 0.0401(8) 0.0254(4) 0.0073(5) 0.0152(4) 0.0078(6)
 H2 0.07(2) 0.06(2) 0.23(3) 0.08(2) 0.07(2) 0.026(18)
 O3 0.0501(7) 0.0220(7) 0.0627(7) -0.0065(6) 0.0247(6) -0.0093(6)
 H3 0.10(2) 0.09(3) 0.22(4) -0.02(3) 0.09(2) 0.02(2)
 O4 0.0506(7) 0.0275(6) 0.0365(5) 0.0094(5) 0.0210(5) 0.0167(5)
 H4 0.043(14) 0.07(2) 0.13(2) 0.037(17) 0.064(15) 0.020(14)
 O5 0.0220(5) 0.0299(7) 0.0296(5) 0.0027(5) 0.0091(4) 0.0024(4)
 H5 0.074(17) 0.07(2) 0.056(14) 0.014(14) 0.045(13) 0.017(15)
 O6 0.0177(4) 0.0210(5) 0.0249(4) -0.0058(4) 0.0030(3) 0.0017(4)
 O7 0.0285(5) 0.0409(7) 0.0332(5) 0.0063(5) 0.0124(4) -0.0008(5)
 H7 0.032(13) 0.16(3) 0.067(17) -0.020(18) 0.014(12) 0.001(18)
 O8 0.0184(5) 0.0356(7) 0.0303(5) 0.0067(5) 0.0022(4) 0.0031(5)
 H8 0.083(16) 0.053(18) 0.037(12) 0.020(11) 0.029(12) 0.035(14)
 O9 0.0267(5) 0.0257(7) 0.0219(4) -0.0048(4) 0.0054(4) -0.0030(5)
 H9 0.048(14) 0.062(19) 0.074(15) -0.014(16) 0.031(12) 0.007(14)
 O10 0.0224(5) 0.0378(8) 0.0297(5) 0.0034(5) 0.0126(4) 0.0003(5)
 H10 0.076(16) 0.09(3) 0.045(15) -0.010(15) 0.038(13) -0.007(17)
 O11 0.0193(4) 0.0165(5) 0.0182(4) 0.0004(4) 0.0032(3) -0.0012(4)
 C1 0.0242(6) 0.0219(8) 0.0202(6) 0.0004(5) 0.0061(5) -0.0020(6)
 H1 0.044(9) 0.037(13) 0.019(7) 0.006(8) -0.005(7) -0.006(9)
 C2 0.0266(7) 0.0318(10) 0.0302(6) 0.0055(7) 0.0113(5) -0.0016(7)
 H2a 0.079(15) 0.031(15) 0.106(17) -0.011(12) 0.049(12) -0.003(12)
 H2b 0.024(9) 0.071(16) 0.031(9) 0.011(9) 0.021(7) 0.009(10)
 C3 0.0296(7) 0.0180(8) 0.0250(6) 0.0000(6) 0.0085(5) -0.0003(6)
 H3a 0.049(11) 0.068(16) 0.026(9) 0.012(9) 0.011(7) 0.011(10)
 C4 0.0318(7) 0.0168(8) 0.0208(6) 0.0006(5) 0.0085(5) 0.0032(5)
 H4a 0.05(1) 0.045(13) 0.030(9) -0.015(8) 0.007(7) 0.008(9)
 C5 0.0202(6) 0.0200(8) 0.0192(5) 0.0003(5) 0.0032(4) 0.0010(5)
 H5a 0.034(10) 0.056(14) 0.030(8) -0.000(9) -0.002(8) -0.009(9)
 C6 0.0193(5) 0.0179(8) 0.0175(5) -0.0005(5) 0.0045(4) 0.0002(5)
 H6 0.049(10) 0.016(10) 0.044(10) -0.003(8) 0.004(8) 0.007(9)
 C7 0.0148(5) 0.0163(7) 0.0190(5) 0.0007(5) 0.0048(4) -0.0000(5)
 C8 0.0157(6) 0.0244(9) 0.0297(7) 0.0024(6) 0.0060(5) -0.0044(6)
 H8a 0.010(8) 0.102(17) 0.062(11) 0.004(12) 0.018(8) -0.017(11)
 H8b 0.037(10) 0.037(13) 0.060(11) 0.009(10) 0.014(9) 0.001(9)
 C9 0.0178(6) 0.0166(8) 0.0183(5) 0.0011(5) 0.0044(4) -0.0013(5)
 H9a 0.029(8) 0.031(11) 0.037(9) -0.019(8) -0.000(7) -0.005(9)
 C10 0.0158(6) 0.0209(8) 0.0214(5) 0.0029(5) 0.0044(4) 0.0007(5)
 H10a 0.040(9) 0.023(12) 0.055(11) 0.006(8) 0.008(8) -0.006(9)
 C11 0.0181(6) 0.0184(9) 0.0251(6) -0.0021(6) 0.0060(4) 0.0017(5)
 H11 0.053(11) 0.032(13) 0.050(11) -0.000(9) 0.015(9) 0.021(10)
 C12 0.0265(7) 0.0323(10) 0.0294(6) -0.0034(6) 0.0134(5) 0.0017(7)
 H12a 0.019(9) 0.077(16) 0.066(11) 0.001(10) 0.011(8) 0.028(9)
 H12b 0.054(12) 0.12(2) 0.036(10) -0.044(12) 0.007(9) -0.032(12)

loop_
  _geom_bond_atom_site_label_1
  _geom_bond_atom_site_label_2
  _geom_bond_distance
  _geom_bond_site_symmetry_2
  _geom_bond_publ_flag
 O1 C1 1.4421(16) . ?
 O1 C6 1.4140(13) . ?
 O2 C2 1.4216(17) . ?
 O3 C3 1.4135(17) . ?
 O4 C4 1.4304(16) . ?
 O5 C5 1.4247(15) . ?
 O6 C7 1.4082(13) . ?
 O6 C11 1.4484(14) . ?
 O7 C12 1.4226(19) . ?
 O8 C10 1.4208(14) . ?
 O9 C9 1.4036(16) . ?
 O10 C8 1.4243(18) . ?
 O11 C6 1.4235(12) . ?
 O11 C7 1.4341(15) . ?
 C2 C1 1.5242(16) . ?
 C3 C1 1.5289(18) . ?
 C4 C3 1.5270(16) . ?
 C5 C4 1.5220(19) . ?
 C6 C5 1.5349(17) . ?
 C8 C7 1.5257(15) . ?
 C9 C7 1.5419(15) . ?
 C9 C10 1.5245(16) . ?
 C11 C10 1.5249(18) . ?
 C12 C11 1.5168(16) . ?

loop_
  _geom_angle_atom_site_label_1
  _geom_angle_atom_site_label_2
  _geom_angle_atom_site_label_3
  _geom_angle
  _geom_angle_site_symmetry_1
  _geom_angle_site_symmetry_3
  _geom_angle_publ_flag
 C1 O1 C6 116.06(9) . . ?
 C7 O6 C11 111.85(8) . . ?
 C6 O11 C7 114.10(9) . . ?
 O1 C1 C2 105.84(11) . . ?
 O1 C1 C3 110.59(10) . . ?
 C2 C1 C3 112.23(11) . . ?
 O2 C2 C1 111.41(11) . . ?
 O3 C3 C1 105.98(11) . . ?
 O3 C3 C4 112.49(10) . . ?
 C1 C3 C4 110.58(10) . . ?
 O4 C4 C3 107.77(10) . . ?
 O4 C4 C5 111.57(10) . . ?
 C3 C4 C5 108.28(10) . . ?
 O5 C5 C4 110.3(1) . . ?
 O5 C5 C6 110.25(10) . . ?
 C4 C5 C6 111.04(10) . . ?
 O1 C6 O11 110.17(9) . . ?
 O1 C6 C5 110.88(10) . . ?
 O11 C6 C5 110.16(9) . . ?
 O6 C7 O11 110.88(8) . . ?
 O6 C7 C8 107.27(10) . . ?
 O6 C7 C9 105.01(9) . . ?
 O11 C7 C8 110.04(10) . . ?
 O11 C7 C9 108.24(9) . . ?
 C8 C7 C9 115.29(9) . . ?
 O10 C8 C7 111.03(11) . . ?
 O9 C9 C7 115.67(10) . . ?
 O9 C9 C10 115.62(11) . . ?
 C7 C9 C10 102.55(9) . . ?
 O8 C10 C9 112.41(10) . . ?
 O8 C10 C11 111.69(12) . . ?
 C9 C10 C11 102.45(10) . . ?
 O6 C11 C10 105.42(9) . . ?
 O6 C11 C12 109.79(10) . . ?
 C10 C11 C12 114.86(11) . . ?
 O7 C12 C11 112.90(11) . . ?

