data_epoxide
_audit_creation_method            
 'Olex2: 2025.05.31 svn.r86d253d1 MSC:194334810 on WIN64, Python: 3.8.10, wxWidgets: 3.2.5 for OlexSys'
_chemical_name_common              '?'
_chemical_name_systematic          '?'
_chemical_formula_moiety           'C2 H4 O'
_chemical_formula_sum              'C2 H4 O'
_chemical_formula_weight           44.05
_chemical_melting_point            ?
_space_group_crystal_system        'monoclinic'
_space_group_IT_number             14
_space_group_name_H-M_alt          'P 1 21/n 1'
_space_group_name_Hall             '-P 2yn'
loop_
  _space_group_symop_id
  _space_group_symop_operation_xyz
 1 +X,+Y,+Z
 2 1/2-X,1/2+Y,1/2-Z
 3 -X,-Y,-Z
 4 1/2+X,1/2-Y,1/2+Z

_cell_length_a                     4.633(5)
_cell_length_b                     8.400(1)
_cell_length_c                     6.577(3)
_cell_angle_alpha                  90
_cell_angle_beta                   100.37(6)
_cell_angle_gamma                  90
_cell_volume                       251.8(3)
_cell_formula_units_Z              4
_diffrn_reflns_av_R_equivalents    0.0000
_diffrn_reflns_av_unetI/netI       0.0400
_diffrn_reflns_limit_h_max         6
_diffrn_reflns_limit_h_min         -9
_diffrn_reflns_limit_k_max         16
_diffrn_reflns_limit_k_min         0
_diffrn_reflns_limit_l_max         13
_diffrn_reflns_limit_l_min         -6
_diffrn_reflns_number              2081
_diffrn_reflns_theta_max           45.00
_diffrn_reflns_theta_min           3.98
_diffrn_ambient_temperature        ?
_diffrn_radiation_wavelength       0.71068
_reflns_number_total               2081
_refine_diff_density_max           0.19
loop_
  _atom_site_label
  _atom_site_type_symbol
  _atom_site_fract_x
  _atom_site_fract_y
  _atom_site_fract_z
  _atom_site_U_iso_or_equiv
  _atom_site_adp_type
  _atom_site_occupancy
  _atom_site_refinement_flags_posn
  _atom_site_site_symmetry_order
  _atom_site_disorder_group
 O1 O 0.11697(8) 0.83091(4) 0.12413(5) 0.02985(9) Uani 1 . 1 .
 C2 C 0.14828(10) 0.93864(5) 0.29602(7) 0.02873(9) Uani 1 . 1 .
 H2a H 0.2636(19) 0.8950(9) 0.4270(14) 0.046(2) Uiso 1 . 1 .
 H2b H 0.1683(18) 1.0526(10) 0.2654(13) 0.043(2) Uiso 1 . 1 .
 C3 C -0.13426(11) 0.86471(6) 0.21833(7) 0.03256(10) Uani 1 . 1 .
 H3a H -0.289(2) 0.9212(9) 0.1325(15) 0.054(2) Uiso 1 . 1 .
 H3b H -0.197(2) 0.7768(11) 0.2930(15) 0.054(2) Uiso 1 . 1 .

loop_
  _atom_site_aniso_label
  _atom_site_aniso_U_11
  _atom_site_aniso_U_22
  _atom_site_aniso_U_33
  _atom_site_aniso_U_23
  _atom_site_aniso_U_13
  _atom_site_aniso_U_12
 O1 0.03465(17) 0.02650(13) 0.03007(15) -0.00485(10) 0.01034(11) 0.00253(10)
 C2 0.0338(2) 0.02520(15) 0.02731(16) -0.00238(12) 0.00579(13) 0.00078(13)
 C3 0.0317(2) 0.03395(19) 0.0345(2) 0.00001(15) 0.01242(16) -0.00312(15)

