data_sucrose
_audit_creation_method            
 'Olex2: 2025.01.10 svn.r16582094 MSC:194134123 on WIN64, Python: 3.8.10, wxWidgets: 3.2.5 for OlexSys'
_chemical_name_common              '?'
_chemical_name_systematic          '?'
_chemical_formula_moiety           'C12 H22 O11'
_chemical_formula_sum              'C12 H22 O11'
_chemical_formula_weight           342.30
_chemical_melting_point            ?
_space_group_crystal_system        'monoclinic'
_space_group_IT_number             4
_space_group_name_H-M_alt          'P 1 21 1'
_space_group_name_Hall             'P 2yb'
loop_
  _space_group_symop_id
  _space_group_symop_operation_xyz
 1 +X,+Y,+Z
 2 -X,1/2+Y,-Z

_cell_length_a                     7.7727(9)
_cell_length_b                     8.7216(11)
_cell_length_c                     10.8637(11)
_cell_angle_alpha                  90
_cell_angle_beta                   102.983(11)
_cell_angle_gamma                  90
_cell_volume                       717.63(15)
_cell_formula_units_Z              2
_diffrn_reflns_av_R_equivalents    0.0339
_diffrn_reflns_av_unetI/netI       0.0306
_diffrn_reflns_limit_h_max         10
_diffrn_reflns_limit_h_min         -10
_diffrn_reflns_limit_k_max         9
_diffrn_reflns_limit_k_min         -11
_diffrn_reflns_limit_l_max         14
_diffrn_reflns_limit_l_min         -14
_diffrn_reflns_number              13618
_diffrn_reflns_theta_max           29.21
_diffrn_reflns_theta_min           2.34
_diffrn_ambient_temperature        ?
_diffrn_radiation_wavelength       0.71073
_reflns_number_total               3318
loop_
  _atom_site_label
  _atom_site_type_symbol
  _atom_site_fract_x
  _atom_site_fract_y
  _atom_site_fract_z
  _atom_site_U_iso_or_equiv
  _atom_site_adp_type
  _atom_site_occupancy
  _atom_site_refinement_flags_posn
  _atom_site_site_symmetry_order
  _atom_site_disorder_group
 O1 O -0.13163 0.9351 0.87741 0.022874 Uani 1 . 1 .
 O2 O -0.21372 0.78884 1.08153 0.036138 Uani 1 . 1 .
 H2 H -0.22763 0.90019 1.1093 0.12885 Uiso 1 . 1 .
 O3 O -0.14433 0.52021 0.8484 0.044664 Uani 1 . 1 .
 H3 H -0.08051 0.45975 0.8433 0.10663 Uiso 1 . 1 .
 O4 O 0.2028 0.58598 0.80898 0.038391 Uani 1 . 1 .
 H4 H 0.2373 0.56363 0.74471 0.05805 Uiso 1 . 1 .
 O5 O 0.24768 0.89811 0.72887 0.028252 Uani 1 . 1 .
 H5 H 0.33875 0.96522 0.76926 0.07422 Uiso 1 . 1 .
 O6 O -0.18381 1.23939 0.71225 0.022782 Uani 1 . 1 .
 O7 O -0.46006 1.09555 0.82659 0.034896 Uani 1 . 1 .
 H7 H -0.34346 1.05806 0.84863 0.06912 Uiso 1 . 1 .
 O8 O -0.58911 1.23625 0.47812 0.030267 Uani 1 . 1 .
 H8 H -0.67956 1.19302 0.48855 0.05183 Uiso 1 . 1 .
 O9 O -0.29562 1.01628 0.42573 0.02589 Uani 1 . 1 .
 H9 H -0.32344 0.93729 0.46024 0.04396 Uiso 1 . 1 .
 O10 O 0.12082 1.09817 0.52978 0.029792 Uani 1 . 1 .
 H10 H 0.15759 1.02361 0.5762 0.06846 Uiso 1 . 1 .
 O11 O -0.10877 0.98694 0.67114 0.019102 Uani 1 . 1 .
 C1 C -0.20441 0.78185 0.85909 0.023716 Uani 1 . 1 .
 H1 H -0.28453 0.76948 0.7748 0.01542 Uiso 1 . 1 .
 C2 C -0.31626 0.7631 0.957 0.030615 Uani 1 . 1 .
 H2A H -0.42421 0.83968 0.93649 0.03301 Uiso 1 . 1 .
 H2B H -0.36167 0.65877 0.94991 0.03739 Uiso 1 . 1 .
 C3 C -0.05772 0.66298 0.87399 0.025211 Uani 1 . 1 .
 H3B H 0.0156 0.66561 0.9585 0.02306 Uiso 1 . 1 .
 C4 C 0.06444 0.69828 0.78544 0.023999 Uani 1 . 1 .
 H4B H -0.00039 0.68871 0.69834 0.02136 Uiso 1 . 1 .
 C5 C 0.1352 0.85881 0.81268 0.022205 Uani 1 . 1 .
 H5B H 0.20413 0.86418 0.89844 0.02365 Uiso 1 . 1 .
 C6 C -0.01402 0.97628 0.79992 0.019376 Uani 1 . 1 .
 H6 H 0.02781 1.07368 0.82817 0.01423 Uiso 1 . 1 .
 C7 C -0.13052 1.1415 0.62417 0.018122 Uani 1 . 1 .
 C8 C 0.0435 1.20356 0.60307 0.024474 Uani 1 . 1 .
 H8A H 0.01946 1.30657 0.55579 0.02496 Uiso 1 . 1 .
 H8B H 0.12339 1.22202 0.68461 0.02345 Uiso 1 . 1 .
 C9 C -0.28571 1.1434 0.50708 0.019335 Uani 1 . 1 .
 H9B H -0.26732 1.2344 0.45771 0.01461 Uiso 1 . 1 .
 C10 C -0.44464 1.16695 0.56527 0.021321 Uani 1 . 1 .
 H10B H -0.47803 1.07242 0.59355 0.0148 Uiso 1 . 1 .
 C11 C -0.37192 1.27262 0.67592 0.021788 Uani 1 . 1 .
 H11 H -0.38233 1.37895 0.65281 0.02327 Uiso 1 . 1 .
 C12 C -0.45285 1.25228 0.78926 0.029872 Uani 1 . 1 .
 H12A H -0.38631 1.31749 0.86259 0.032 Uiso 1 . 1 .
 H12B H -0.57822 1.28637 0.76931 0.02575 Uiso 1 . 1 .

loop_
  _atom_site_aniso_label
  _atom_site_aniso_U_11
  _atom_site_aniso_U_22
  _atom_site_aniso_U_33
  _atom_site_aniso_U_23
  _atom_site_aniso_U_13
  _atom_site_aniso_U_12
 O1 0.02662 0.02114 0.02317 -0.00051 0.01047 -0.00074
 O2 0.04572 0.03979 0.02632 0.00621 0.01531 0.00717
 O3 0.0511 0.02119 0.06752 -0.00674 0.02562 -0.00936
 O4 0.05406 0.02956 0.03757 0.00956 0.02301 0.01971
 O5 0.02309 0.03219 0.03158 0.00176 0.01059 0.0014
 O6 0.01794 0.02315 0.02653 -0.00743 0.00346 0.00222
 O7 0.02955 0.04153 0.03631 0.0077 0.01311 0.0008
 O8 0.01771 0.03857 0.03264 0.0078 0.00168 0.00228
 O9 0.02956 0.02494 0.02306 -0.00517 0.00568 -0.00327
 O10 0.02463 0.03671 0.03156 0.00334 0.01376 0.00194
 O11 0.02196 0.01601 0.01855 0.00093 0.00289 -0.00155
 C1 0.02633 0.0227 0.02232 0.00092 0.00589 -0.00357
 C2 0.02777 0.03415 0.03196 0.00584 0.01101 -0.00133
 C3 0.03119 0.019 0.0264 -0.00074 0.00849 -0.00135
 C4 0.03195 0.01965 0.02134 0.00162 0.00798 0.00527
 C5 0.02194 0.02455 0.0198 0.00173 0.004 0.00096
 C6 0.02083 0.01967 0.01778 -0.00056 0.00466 -0.00088
 C7 0.01822 0.01587 0.02074 0.00047 0.00536 0.00107
 C8 0.01699 0.02655 0.03046 0.00155 0.00655 -0.00416
 C9 0.02012 0.01868 0.01935 0.00087 0.00474 -0.00178
 C10 0.01776 0.02276 0.02348 0.00521 0.00471 0.00194
 C11 0.01807 0.01862 0.0291 -0.00072 0.0062 0.00244
 C12 0.02753 0.03339 0.03188 -0.00381 0.0134 0.00205

