data_sucrose
_audit_creation_method            
 'Olex2: Dec 15 2021 20:46:35 MSC:193030706 on WIN64, Python: 3.8.6, wxWidgets: 3.1.5'
_chemical_name_common              '?'
_chemical_name_systematic          '?'
_chemical_formula_moiety           'C12 H22 O11'
_chemical_formula_sum              'C12 H22 O11'
_chemical_formula_weight           342.30
_chemical_melting_point            ?
_space_group_crystal_system        'monoclinic'
_space_group_IT_number             4
_space_group_name_H-M_alt          'P 1 21 1'
_space_group_name_Hall             'P 2yb'
loop_
  _space_group_symop_id
  _space_group_symop_operation_xyz
 1 +X,+Y,+Z
 2 -X,1/2+Y,-Z

_cell_length_a                     7.7727(9)
_cell_length_b                     8.7216(11)
_cell_length_c                     10.8637(11)
_cell_angle_alpha                  90
_cell_angle_beta                   102.983(11)
_cell_angle_gamma                  90
_cell_volume                       717.63(15)
_cell_formula_units_Z              2
_diffrn_reflns_av_R_equivalents    0.0339
_diffrn_reflns_av_unetI/netI       0.0306
_diffrn_reflns_limit_h_max         10
_diffrn_reflns_limit_h_min         -10
_diffrn_reflns_limit_k_max         9
_diffrn_reflns_limit_k_min         -11
_diffrn_reflns_limit_l_max         14
_diffrn_reflns_limit_l_min         -14
_diffrn_reflns_number              13618
_diffrn_reflns_theta_max           29.21
_diffrn_reflns_theta_min           2.34
_diffrn_ambient_temperature        ?
_diffrn_radiation_wavelength       0.71073
_reflns_number_total               3318
loop_
  _atom_site_label
  _atom_site_type_symbol
  _atom_site_fract_x
  _atom_site_fract_y
  _atom_site_fract_z
  _atom_site_U_iso_or_equiv
  _atom_site_adp_type
  _atom_site_occupancy
  _atom_site_refinement_flags_posn
  _atom_site_site_symmetry_order
  _atom_site_disorder_group
 O1 O -0.1315(6) 0.9351(4) 0.8770(4) 0.0215(11) Uani 1 . 1 .
 O2 O -0.2142(8) 0.7894(4) 1.0813(5) 0.0347(15) Uani 1 . 1 .
 H2 H -0.217(15) 0.912(2) 1.104(5) 0.10(6) Uani 1 R 1 .
 O3 O -0.1429(9) 0.5193(4) 0.8486(6) 0.0429(16) Uani 1 . 1 .
 H3 H -0.046(5) 0.432(4) 0.835(16) 0.12(7) Uani 1 R 1 .
 O4 O 0.2029(8) 0.5862(4) 0.8081(5) 0.0363(14) Uani 1 . 1 .
 H4 H 0.246(10) 0.564(10) 0.720(2) 0.06(4) Uani 1 R 1 .
 O5 O 0.2476(7) 0.8985(4) 0.7296(5) 0.0264(13) Uani 1 . 1 .
 H5 H 0.352(9) 0.977(11) 0.778(4) 0.05(4) Uani 1 R 1 .
 O6 O -0.1844(5) 1.2391(4) 0.7119(4) 0.0218(11) Uani 1 . 1 .
 O7 O -0.4592(7) 1.0962(4) 0.8266(5) 0.0334(14) Uani 1 . 1 .
 H7 H -0.3241(13) 1.050(4) 0.853(11) 0.09(6) Uani 1 R 1 .
 O8 O -0.5895(6) 1.2356(4) 0.4787(5) 0.0283(13) Uani 1 . 1 .
 H8 H -0.711(2) 1.171(7) 0.480(7) 0.05(4) Uani 1 R 1 .
 O9 O -0.2956(7) 1.0157(4) 0.4264(4) 0.0244(12) Uani 1 . 1 .
 H9 H -0.328(14) 0.913(2) 0.475(4) 0.05(3) Uani 1 R 1 .
 O10 O 0.1211(7) 1.0979(4) 0.5306(5) 0.0284(13) Uani 1 . 1 .
 H10 H 0.161(13) 0.993(5) 0.586(4) 0.06(4) Uani 1 R 1 .
 O11 O -0.1082(6) 0.9874(4) 0.6715(4) 0.0183(11) Uani 1 . 1 .
 C1 C -0.2047(9) 0.7825(6) 0.8590(6) 0.0220(16) Uani 1 . 1 .
 H1 H -0.2903(9) 0.7734(6) 0.7638(6) 0.04(2) Uani 1 R 1 .
 C2 C -0.3157(10) 0.7633(7) 0.9572(7) 0.0289(19) Uani 1 . 1 .
 H2a H -0.372(4) 0.643(7) 0.9508(8) 0.06(3) Uani 1 R 1 .
 H2b H -0.430(7) 0.847(5) 0.9362(14) 0.04(3) Uani 1 R 1 .
 C3 C -0.0578(10) 0.6627(6) 0.8741(7) 0.0240(16) Uani 1 . 1 .
 H3a H 0.0195(10) 0.6641(6) 0.9723(7) 0.05(3) Uani 1 R 1 .
 C4 C 0.0642(10) 0.6974(6) 0.7853(6) 0.0227(16) Uani 1 . 1 .
 H4a H -0.0103(10) 0.6894(6) 0.6866(6) 0.05(3) Uani 1 R 1 .
 C5 C 0.1360(9) 0.8595(6) 0.8123(6) 0.0199(15) Uani 1 . 1 .
 H5a H 0.2150(9) 0.8633(6) 0.9099(6) 0.04(3) Uani 1 R 1 .
 C6 C -0.0151(9) 0.9765(7) 0.7998(6) 0.0183(15) Uani 1 . 1 .
 H6 H 0.0420(9) 1.0893(7) 0.8305(6) 0.04(2) Uani 1 R 1 .
 C7 C -0.1309(8) 1.1413(6) 0.6243(6) 0.0166(14) Uani 1 . 1 .
 C8 C 0.0437(9) 1.2031(7) 0.6029(7) 0.0230(17) Uani 1 . 1 .
 H8a H 0.1352(9) 1.2228(7) 0.6946(7) 0.05(3) Uani 1 R 1 .
 H8b H 0.0208(9) 1.3135(7) 0.5530(7) 0.04(2) Uani 1 R 1 .
 C9 C -0.2855(8) 1.1429(6) 0.5070(6) 0.0176(14) Uani 1 . 1 .
 H9a H -0.2712(8) 1.2458(6) 0.4516(6) 0.025(19) Uani 1 R 1 .
 C10 C -0.4452(8) 1.1673(7) 0.5648(6) 0.0195(15) Uani 1 . 1 .
 H10a H -0.4862(8) 1.0575(7) 0.5990(6) 0.04(2) Uani 1 R 1 .
 C11 C -0.3712(9) 1.2728(7) 0.6764(6) 0.0206(16) Uani 1 . 1 .
 H11 H -0.3889(9) 1.3926(7) 0.6445(6) 0.04(3) Uani 1 R 1 .
 C12 C -0.4533(10) 1.2519(7) 0.7894(7) 0.0286(19) Uani 1 . 1 .
 H12a H -0.5884(10) 1.2982(7) 0.7663(7) 0.06(3) Uani 1 R 1 .
 H12b H -0.3769(10) 1.3183(7) 0.8693(7) 0.07(4) Uani 1 R 1 .

loop_
  _atom_site_aniso_label
  _atom_site_aniso_U_11
  _atom_site_aniso_U_22
  _atom_site_aniso_U_33
  _atom_site_aniso_U_23
  _atom_site_aniso_U_13
  _atom_site_aniso_U_12
 O1 0.026(3) 0.020(3) 0.021(2) -0.000(2) 0.0092(19) 0.001(2)
 O2 0.042(4) 0.040(4) 0.025(2) 0.008(3) 0.015(2) 0.007(3)
 H2 0.07(11) 0.04(10) 0.19(15) 0.08(11) 0.04(11) 0.01(9)
 O3 0.049(4) 0.023(4) 0.062(4) -0.006(3) 0.024(3) -0.010(3)
 H3 0.06(11) 0.11(16) 0.22(19) -0.01(15) 0.09(12) 0.03(11)
 O4 0.050(4) 0.027(4) 0.037(3) 0.010(3) 0.020(3) 0.016(3)
 H4 0.05(8) 0.04(10) 0.11(11) 0.02(8) 0.06(8) 0.02(8)
 O5 0.022(3) 0.029(4) 0.029(3) 0.003(3) 0.009(2) 0.004(3)
 H5 0.05(8) 0.06(11) 0.04(7) 0.01(7) 0.04(6) 0.01(7)
 O6 0.018(2) 0.022(3) 0.025(2) -0.006(2) 0.0031(17) 0.002(2)
 O7 0.029(3) 0.041(4) 0.033(3) 0.006(3) 0.012(2) -0.001(3)
 H7 0.04(8) 0.13(17) 0.10(12) -0.02(11) 0.04(8) 0.01(10)
 O8 0.019(3) 0.035(4) 0.029(3) 0.006(3) 0.002(2) 0.004(3)
 H8 0.07(9) 0.07(11) 0.03(7) 0.03(7) 0.03(7) 0.03(8)
 O9 0.025(3) 0.026(4) 0.021(2) -0.006(2) 0.005(2) -0.002(3)
 H9 0.05(8) 0.04(9) 0.06(8) -0.00(7) 0.03(7) 0.02(7)
 O10 0.021(3) 0.038(4) 0.029(3) 0.002(3) 0.013(2) -0.001(3)
 H10 0.07(9) 0.08(12) 0.02(7) 0.01(8) 0.02(6) -0.01(9)
 O11 0.019(2) 0.017(3) 0.019(2) 0.000(2) 0.0035(17) -0.001(2)
 C1 0.024(4) 0.023(5) 0.020(3) 0.001(3) 0.006(3) -0.002(3)
 H1 0.04(5) 0.05(7) 0.02(4) -0.00(5) 0.00(4) -0.00(5)
 C2 0.026(4) 0.033(6) 0.030(4) 0.006(4) 0.012(3) -0.001(4)
 H2a 0.07(8) 0.03(8) 0.09(8) -0.01(6) 0.04(6) -0.00(6)
 H2b 0.04(5) 0.07(9) 0.03(5) 0.01(5) 0.02(4) -0.00(5)
 C3 0.030(4) 0.018(4) 0.025(3) 0.000(3) 0.009(3) -0.000(3)
 H3a 0.06(6) 0.07(9) 0.03(5) 0.01(5) 0.01(4) 0.03(6)
 C4 0.032(4) 0.017(5) 0.021(3) 0.000(3) 0.008(3) 0.003(3)
 H4a 0.05(6) 0.06(8) 0.03(5) -0.01(5) 0.01(4) 0.02(6)
 C5 0.020(3) 0.019(5) 0.019(3) -0.000(3) 0.003(3) 0.001(3)
 H5a 0.02(5) 0.06(8) 0.04(5) -0.01(5) 0.00(4) -0.01(5)
 C6 0.019(3) 0.018(5) 0.019(3) -0.000(3) 0.004(2) 0.001(3)
 H6 0.04(6) 0.02(6) 0.05(5) -0.01(4) -0.00(4) 0.00(5)
 C7 0.015(3) 0.016(4) 0.019(3) 0.001(3) 0.005(2) -0.001(3)
 C8 0.015(3) 0.024(5) 0.030(4) 0.003(4) 0.006(3) -0.005(3)
 H8a 0.01(4) 0.09(9) 0.07(6) 0.00(6) 0.02(4) -0.01(5)
 H8b 0.04(5) 0.02(6) 0.05(6) 0.00(5) 0.01(5) 0.00(5)
 C9 0.018(3) 0.017(4) 0.018(3) 0.001(3) 0.004(2) -0.001(3)
 H9a 0.03(5) 0.01(5) 0.03(4) -0.01(4) 0.01(4) -0.00(4)
 C10 0.016(3) 0.021(5) 0.021(3) 0.003(3) 0.004(2) 0.001(3)
 H10a 0.03(5) 0.03(7) 0.05(6) 0.01(5) 0.01(4) -0.01(5)
 C11 0.019(3) 0.019(5) 0.025(3) -0.002(3) 0.006(3) 0.002(3)
 H11 0.05(6) 0.02(6) 0.06(6) -0.00(5) 0.02(5) 0.03(5)
 C12 0.026(4) 0.033(6) 0.030(4) -0.003(4) 0.014(3) 0.003(4)
 H12a 0.04(6) 0.07(9) 0.06(6) 0.02(6) 0.03(5) 0.03(6)
 H12b 0.04(6) 0.13(11) 0.03(5) -0.05(6) -0.00(4) -0.05(6)

loop_
  _geom_bond_atom_site_label_1
  _geom_bond_atom_site_label_2
  _geom_bond_distance
  _geom_bond_site_symmetry_2
  _geom_bond_publ_flag
 O1 C1 1.443(7) . ?
 O1 C6 1.411(7) . ?
 O2 C2 1.419(9) . ?
 O3 C3 1.413(7) . ?
 O4 C4 1.430(8) . ?
 O5 C5 1.423(8) . ?
 O6 C7 1.409(7) . ?
 O6 C11 1.446(8) . ?
 O7 C12 1.421(7) . ?
 O8 C10 1.420(7) . ?
 O9 C9 1.404(7) . ?
 O10 C8 1.425(8) . ?
 O11 C6 1.423(7) . ?
 O11 C7 1.434(7) . ?
 C2 C1 1.524(9) . ?
 C3 C1 1.529(9) . ?
 C4 C3 1.527(9) . ?
 C5 C4 1.524(8) . ?
 C6 C5 1.539(8) . ?
 C8 C7 1.526(8) . ?
 C9 C7 1.543(8) . ?
 C9 C10 1.526(9) . ?
 C11 C10 1.528(9) . ?
 C12 C11 1.516(9) . ?

loop_
  _geom_angle_atom_site_label_1
  _geom_angle_atom_site_label_2
  _geom_angle_atom_site_label_3
  _geom_angle
  _geom_angle_site_symmetry_1
  _geom_angle_site_symmetry_3
  _geom_angle_publ_flag
 C1 O1 C6 116.2(4) . . ?
 C7 O6 C11 111.9(4) . . ?
 C6 O11 C7 114.1(4) . . ?
 O1 C1 C2 105.9(5) . . ?
 O1 C1 C3 110.7(5) . . ?
 C2 C1 C3 112.1(5) . . ?
 O2 C2 C1 111.5(6) . . ?
 O3 C3 C1 106.2(6) . . ?
 O3 C3 C4 112.4(5) . . ?
 C1 C3 C4 110.6(5) . . ?
 O4 C4 C3 107.9(5) . . ?
 O4 C4 C5 111.5(5) . . ?
 C3 C4 C5 108.3(5) . . ?
 O5 C5 C4 110.4(5) . . ?
 O5 C5 C6 110.3(5) . . ?
 C4 C5 C6 111.0(5) . . ?
 O1 C6 O11 110.3(5) . . ?
 O1 C6 C5 110.9(5) . . ?
 O11 C6 C5 109.9(5) . . ?
 O6 C7 O11 110.9(4) . . ?
 O6 C7 C8 107.3(5) . . ?
 O6 C7 C9 105.0(5) . . ?
 O11 C7 C8 110.0(5) . . ?
 O11 C7 C9 108.3(5) . . ?
 C8 C7 C9 115.2(5) . . ?
 O10 C8 C7 110.9(5) . . ?
 O9 C9 C7 115.6(5) . . ?
 O9 C9 C10 115.4(5) . . ?
 C7 C9 C10 102.5(5) . . ?
 O8 C10 C9 112.5(5) . . ?
 O8 C10 C11 111.8(5) . . ?
 C9 C10 C11 102.4(5) . . ?
 O6 C11 C10 105.4(5) . . ?
 O6 C11 C12 109.8(5) . . ?
 C10 C11 C12 114.8(5) . . ?
 O7 C12 C11 113.0(5) . . ?

