TITL sucrose_a.res in P2(1)
REM Old TITL SUCROSE IN P2(1)
REM SHELXT solution in P2(1)
REM R1 0.093, Rweak 0.029, Alpha 0.001, Orientation as input
REM Flack x = 0.023 ( 0.444 ) from Parsons' quotients
REM Formula found by SHELXT: C13 O10
CELL 0.71 7.7727 8.7216 10.8637 90 102.983 90
ZERR 2 0.0009 0.0011 0.0011 0 0.011 0
LATT -1
SYMM -X,0.5+Y,-Z
SFAC C H O
DISP C 0.0008 0.0011 8.2943
DISP H 0 0 0.617
DISP O 0.0041 0.0042 21.1513
UNIT 24 44 22

L.S. 10
PLAN  5
CONF
BOND $H
MORE -1
fmap 2
acta 
LIST -6
WGHT 0.01519 0
FVAR 1.135482
REM <olex2.extras>
REM <HklSrc "%.\\sucrose.hkl">
REM </olex2.extras>

O001  3     0.60833  0.59088  0.82853  11.00000  0.01836  0.01606  0.01766 =
 -0.00026  0.00332  0.00129 
O002  3     0.63146  0.53848  0.62293  11.00000  0.02477  0.01908  0.02026 =
 0.00004  0.00883 -0.00093 
O003  3     0.68433  0.84259  0.78809  11.00000  0.01730  0.02023  0.02418 =
 0.00558  0.00285 -0.00163 
O004  3     0.79550  0.61968  1.07376  11.00000  0.02564  0.02531  0.02123 =
 0.00477  0.00499  0.00283 
H004  2     0.82430  0.53175  1.03424  11.00000  0.04071  0.06154  0.06575 =
 0.01997  0.02682 -0.00519 
O005  3     0.25252  0.50188  0.77046  11.00000  0.02151  0.02902  0.02888 =
 -0.00287  0.00890 -0.00294 
H005  2     0.15410  0.57115  0.72720  11.00000  0.06594  0.07634  0.05558 =
 -0.01312  0.04712 -0.01966 
O006  3     0.37900  0.70182  0.96972  11.00000  0.02136  0.03733  0.02907 =
 -0.00331  0.01238  0.00024 
H006  2     0.34437  0.61720  0.91764  11.00000  0.06985  0.09179  0.04024 =
 0.01765  0.03975  0.00548 
O007  3     1.08923  0.83933  1.02136  11.00000  0.01819  0.03492  0.02939 =
 -0.00655  0.00229 -0.00316 
H007  2     1.19655  0.78513  1.01580  11.00000  0.07514  0.06055  0.03848 =
 -0.02780  0.03206 -0.03779 
O008  3     0.95919  0.69965  0.67348  11.00000  0.02794  0.04046  0.03223 =
 -0.00597  0.01240  0.00096 
H008  2     0.82841  0.65942  0.64674  11.00000  0.03836  0.13044  0.07558 =
 0.01430  0.02465  0.00381 
O009  3     0.71431  0.39287  0.41872  11.00000  0.04112  0.03965  0.02483 =
 -0.00748  0.01527 -0.00761 
H009  2     0.71887  0.51162  0.39679  11.00000  0.07045  0.04617  0.21675 =
 -0.06785  0.04464 -0.01393 
O00A  3     0.29728  0.18968  0.69183  11.00000  0.05001  0.02683  0.03574 =
 -0.00943  0.02061 -0.01643 
H00A  2     0.25505  0.17123  0.76918  11.00000  0.04698  0.06540  0.13395 =
 -0.04177  0.06766 -0.02176 
O00B  3     0.64307  0.12307  0.65128  11.00000  0.04916  0.02182  0.06143 =
 0.00609  0.02408  0.00942 
H00B  2     0.57044  0.04128  0.67086  11.00000  0.08965  0.11254  0.24097 =
 0.03192  0.09634 -0.03152 
C00C  1     0.51481  0.57975  0.70021  11.00000  0.01879  0.01726  0.01731 =
 0.00050  0.00433 -0.00027 
H00C  2     0.46568  0.69186  0.66551  11.00000  0.04427  0.01691  0.03680 =
 -0.00320  0.00315 -0.00939 
C00D  1     0.78560  0.74637  0.99284  11.00000  0.01736  0.01606  0.01792 =
 -0.00124  0.00432  0.00126 
H00D  2     0.76848  0.84694  1.04698  11.00000  0.02193  0.02635  0.04100 =
 0.02161 -0.00290  0.00173 
C00E  1     0.63093  0.74488  0.87568  11.00000  0.01431  0.01593  0.01851 =
 -0.00064  0.00469  0.00015 
C00F  1     0.94508  0.77086  0.93517  11.00000  0.01537  0.02047  0.02094 =
 -0.00274  0.00432 -0.00059 
H00F  2     0.98540  0.66130  0.90170  11.00000  0.03529  0.02343  0.05399 =
 -0.00347  0.00834  0.00163 
C00G  1     0.55773  0.26636  0.62586  11.00000  0.02889  0.01762  0.02435 =
 -0.00017  0.00828  0.00026 
H00G  2     0.47725  0.26816  0.52907  11.00000  0.04882  0.05911  0.02943 =
 -0.00704  0.01521 -0.01433 
C00H  1     0.36408  0.46293  0.68760  11.00000  0.01964  0.01930  0.01871 =
 -0.00017  0.00308 -0.00100 
H00H  2     0.29002  0.46621  0.58841  11.00000  0.02866  0.05681  0.03511 =
 0.00573  0.00274  0.01273 
C00I  1     0.43569  0.30112  0.71466  11.00000  0.03111  0.01623  0.02031 =
 -0.00049  0.00843 -0.00301 
H00I  2     0.51199  0.28780  0.81277  11.00000  0.04328  0.04026  0.03451 =
 0.01594  0.00718 -0.00701 
C00J  1     0.87139  0.87621  0.82374  11.00000  0.01780  0.01786  0.02445 =
 0.00220  0.00600 -0.00161 
H00J  2     0.88290  0.99671  0.85190  11.00000  0.05159  0.02788  0.04531 =
 0.00185  0.01292 -0.01882 
C00K  1     0.45623  0.80648  0.89700  11.00000  0.01525  0.02373  0.02928 =
 -0.00236  0.00599  0.00442 
H00E  2     0.36845  0.82860  0.80714  11.00000  0.00641  0.10621  0.05855 =
 -0.00745  0.01998  0.01627 
H00K  2     0.47973  0.91710  0.94577  11.00000  0.03166  0.04033  0.05593 =
 -0.00520  0.01316  0.00066 
C00L  1     0.70473  0.38600  0.64106  11.00000  0.02345  0.02165  0.01974 =
 -0.00040  0.00603  0.00191 
H00L  2     0.79270  0.37091  0.73824  11.00000  0.03996  0.03169  0.01691 =
 -0.00654 -0.00379  0.00329 
C00M  1     0.81595  0.36717  0.54297  11.00000  0.02612  0.03116  0.02987 =
 -0.00549  0.01142  0.00152 
H00M  2     0.86449  0.25040  0.54887  11.00000  0.07509  0.03626  0.10444 =
 0.01368  0.05053 -0.00298 
H00N  2     0.93356  0.45442  0.56471  11.00000  0.02726  0.07489  0.02701 =
 -0.01178  0.02264 -0.00969 
C00N  1     0.95336  0.85558  0.71060  11.00000  0.02591  0.03172  0.02899 =
 0.00333  0.01329 -0.00179 
H00O  2     1.09336  0.89745  0.73844  11.00000  0.01915  0.08115  0.06043 =
 -0.00609  0.01152 -0.02686 
H00P  2     0.88178  0.92643  0.63175  11.00000  0.04678  0.11892  0.03708 =
 0.05021  0.00495  0.03387 
HKLF 4

END
Q1 1 0.777778 0.833333 0.9 11 0.05 0.14
Q2 1 0.666667 0.033333 0.725 11 0.05 0.12
Q3 1 0.814815 0.5 1.15 11 0.05 0.12
Q4 1 0.518519 0.366667 0.45 11 0.05 0.12
Q5 1 0.259259 0.8 0.85 11 0.05 0.11

  REM The information below was added by Olex2.
  REM
  REM R1 = 0.0242 for 3002 Fo > 4sig(Fo) and 0.0292 for all 3318 data
  REM 406 parameters refined using 1 restraints
  REM Highest difference peak 0.1432, deepest hole -0.1507
  REM Mean Shift 0.0001, Max Shift -0.0024.

  REM +++ Tabular Listing of Refinement Information +++
  REM R1_all = 0.0292
  REM R1_gt = 0.0242
  REM wR_ref = 0.0440
  REM GOOF = 1.0739
  REM Shift_max = -0.0024
  REM Shift_mean = 0.0001
  REM Reflections_all = 3318
  REM Reflections_gt = 3002
  REM Parameters = 406
  REM Hole = -0.1507
  REM Peak = 0.1432
  REM Flack = -0.2(6)

  